533
Properties=species:S:1:pos:R:3:move_mask:L:1:forces:R:3 ixazomib=T production=T complex=T |=T MS_B_LYS33=T charge=-1 -1=T energy=-2482.19656665774 stress="0.0 0.0 0.0 0.0 0.0 0.0 0.0 0.0 0.0" pbc="F F F"
N       47.86000000     179.16600000      62.75300000  F       0.04478539      -0.71517883      -0.28101086
C       47.74100000     178.18400000      63.82800000  F      -0.08627394       0.67351545       0.14550419
C       46.89800000     177.01300000      63.45800000  F      -0.66445543       1.03321006      -1.12928475
O       45.92400000     177.16600000      62.74200000  F      -0.02179002      -0.09148483       0.21970900
C       47.11500000     178.90200000      65.03000000  F       0.59141647       0.06920090       0.98700031
O       48.05800000     179.83300000      65.54700000  F      -0.31631145       0.25391130       0.19339332
C       46.75800000     177.97700000      66.20200000  F      -0.17884960      -0.20597779      -0.42779055
N       47.29700000     175.82200000      63.92600000  F       0.65043654      -1.23794729      -0.01257164
C       46.45400000     174.65200000      63.87400000  F       0.22250750      -0.44370162       0.61557065
C       46.46600000     174.00900000      65.26500000  F       1.08394685       1.09692731      -0.55393148
O       47.51200000     173.74100000      65.82500000  F       0.06658987      -0.38038028      -0.28651376
C       46.85700000     173.64600000      62.77200000  F      -0.70823125      -0.06232171      -0.13588447
O       47.03300000     174.32800000      61.52200000  F       0.02020869       0.23279141       0.51077989
C       45.74000000     172.58800000      62.63800000  F       0.45481040       0.13490890      -0.00060240
N       45.27100000     173.88600000      65.86300000  F      -1.07851447      -0.13982919       0.55289493
C       45.10500000     173.16100000      67.09700000  F      -0.36122584      -0.30580175       0.11956549
C       44.05700000     172.10600000      66.86000000  F      -1.50090524       2.09428931      -2.61458213
O       43.14400000     172.33000000      66.03400000  F       1.43745643      -0.47210724       1.52248454
C       44.68600000     174.04700000      68.28800000  F       0.09349584       0.15558967      -0.54224876
O       43.45900000     174.68700000      68.01900000  F      -0.53021211      -0.05824868      -0.02621726
C       45.72600000     175.09400000      68.54400000  F       0.57041145       0.33995316       0.26636490
N       50.41500000     173.24300000      66.68500000  F       0.22103122       0.71574451      -1.04192323
C       51.64600000     173.72200000      66.09000000  F       0.16024639       0.30606451       0.84894844
C       52.22400000     174.79300000      67.03300000  F      -1.79370441      -0.87864625       1.46494938
O       51.71300000     174.99200000      68.14900000  F       0.80138324      -0.13989101      -1.70918433
C       51.44500000     174.21900000      64.66800000  F      -0.50827640       1.44062755      -0.41496221
C       50.85100000     175.67100000      64.62000000  F       0.73435562      -0.83139796       0.17629209
O       49.89900000     175.90100000      65.33700000  F      -0.95944532      -0.63263309       0.63983494
O       51.36800000     176.53800000      63.92800000  F       0.95220923      -0.22827331      -0.61437010
N       53.29800000     175.45600000      66.58800000  F       0.56819174       0.81218182      -1.16516620
C       53.98000000     176.37900000      67.42500000  F       0.18353930       0.56088229       0.73624590
C       54.42000000     177.68400000      66.77600000  F       0.99138845       0.86260396       1.81860864
O       55.29400000     178.39100000      67.32700000  F      -1.36127094      -1.48278164      -1.45763279
C       55.14400000     175.64800000      68.02800000  F       0.25205312      -0.00839420       0.75629800
O       56.10400000     175.32300000      67.08600000  F       0.31997758      -0.02082539      -0.29864351
N       53.73900000     178.07000000      65.67300000  F       0.00783879      -0.01475214      -0.61150320
C       54.13100000     179.24900000      64.92000000  F      -0.62881843       0.20205005      -0.12635359
C       53.30200000     180.45100000      65.35500000  F      -0.55729527      -2.82998163      -0.07324573
O       52.12100000     180.31100000      65.52100000  F      -0.59678169       0.23755396      -0.14148300
C       53.87800000     179.01400000      63.43500000  F       0.10769442       0.36036448      -0.35765814
C       54.02700000     180.29000000      62.55900000  F      -0.12753091      -0.43134674       0.83038230
C       54.11000000     179.93900000      61.10900000  F      -0.03583869      -0.05208664      -0.57699884
N       55.30700000     179.17700000      60.79000000  F      -0.27227774       0.19271038       0.75581974
C       55.63600000     178.74900000      59.56100000  F       0.90404116      -0.16945406       0.52887562
N       54.89600000     179.02000000      58.51500000  F      -1.05113040       0.19144483      -1.39264560
N       56.79600000     178.10500000      59.36800000  F       0.51468208      -0.35420258       0.10444321
N       53.93000000     181.57900000      65.50300000  F       2.08329277       2.54795946      -0.05910982
C       53.26600000     182.85600000      65.52000000  F      -0.05585834       0.42624160       0.08537437
C       53.69100000     183.73000000      64.34400000  F       2.25995986      -0.51125706       1.18332944
O       54.86600000     183.78000000      63.98800000  F      -0.90720719      -0.55199183      -0.16516403
C       53.60800000     183.58900000      66.80600000  F      -0.28438264       0.13967540      -0.05628026
N       52.76300000     184.56000000      63.88700000  F      -2.11258993       0.64020880      -0.35842790
C       52.95600000     185.45200000      62.79600000  F       0.46276639       0.44050266      -0.69468988
C       52.44100000     186.84600000      63.06900000  F      -0.98329397      -1.20201436       0.59450096
O       51.42100000     187.04100000      63.69000000  F      -0.05864229      -0.16079503      -0.11534532
C       52.35300000     184.90300000      61.47200000  F       0.19426036      -0.86840657       0.37931968
O       51.03100000     184.45400000      61.69800000  F      -0.45999504       0.71481544       0.06133880
C       53.12900000     183.68100000      60.98200000  F       0.32157637       0.29992524      -0.08206611
N       53.14600000     187.82700000      62.51900000  F       1.27498093       1.53610966      -0.52880856
C       52.76100000     189.24900000      62.50900000  F       0.57425239      -0.70423437      -0.46405849
C       52.67800000     189.56500000      61.02800000  F       1.59053913       0.89133737       0.53176482
O       53.69300000     189.79000000      60.39100000  F      -0.09096178      -0.31932295       0.22776725
C       53.84300000     190.08700000      63.16900000  F      -0.25478835       0.01041489       0.14406700
N       56.06200000     178.77600000      70.10600000  F      -0.78587383       0.72214819      -1.05250250
C       55.01900000     179.19100000      70.99100000  F      -0.89198043      -0.86653794       0.07838926
C       54.41400000     177.93400000      71.61200000  F      -0.13437146      -0.66131625      -2.20043889
O       54.12100000     176.98500000      70.87400000  F       0.42619815       0.99046342       0.79609792
C       53.88000000     179.91700000      70.23400000  F       0.46216104       0.12929723       0.19932480
C       52.80800000     180.37200000      71.19200000  F      -0.47052779      -0.08512294       0.33442147
C       54.42500000     181.11400000      69.49900000  F       0.18377718       0.16764787      -0.36870156
N       54.14500000     177.97100000      72.92100000  F      -0.14649453      -0.14447812       1.52520625
C       53.36600000     176.92500000      73.57300000  F      -0.71643428       0.34091588      -0.23383798
C       51.87300000     177.28800000      73.49500000  F       2.57979143      -0.35748228       0.25074380
O       51.45600000     178.15600000      74.18100000  F      -0.84628378       1.95414730       1.46959550
C       53.75900000     176.74600000      75.01900000  F       0.10355839      -0.02936276       0.20796136
C       55.21400000     176.33700000      75.18500000  F       0.23482835      -0.32775713      -0.12791976
C       55.51700000     174.96900000      74.53300000  F      -0.10733022      -0.10785521       0.48305835
C       56.83900000     174.31600000      75.00400000  F      -0.33827887       0.38855516      -0.38221790
N       57.89700000     174.64600000      74.01500000  F       0.31900572      -0.01695131       0.02034799
N       51.13400000     176.62500000      72.64300000  F      -1.43018810      -1.87231622      -1.81270392
C       49.71600000     176.90100000      72.43200000  F      -0.35585997       0.20672003      -0.13675865
C       48.77200000     176.04900000      73.26900000  F      -3.31531266       2.15913241      -0.89767842
O       47.52800000     176.28000000      73.26500000  F       2.81838807      -0.52935060      -0.22571571
C       49.37100000     176.78000000      70.95000000  F      -0.84193766      -0.65134150       0.51887468
C       50.18100000     177.65300000      70.07500000  F       0.74270166       0.64154881       0.13308403
C       49.72600000     177.66300000      68.64600000  F      -0.05976949       0.00133837      -0.64062740
C       50.62200000     178.54800000      67.79200000  F       0.03023313      -0.16338366      -0.06928496
N       50.30600000     178.48400000      66.33800000  F       0.09609994       0.04812084       0.38966443
N       49.31500000     175.10600000      74.01100000  F       1.29818876      -1.72716336       1.43406696
C       48.58100000     174.35100000      75.03000000  F      -0.25440598       0.14370624      -0.31694648
C       48.87400000     174.86500000      76.41100000  F      -0.32670335       0.39015960      -1.86830742
O       49.97800000     174.85800000      76.83600000  F       2.47954985      -0.51221373       0.80480304
C       48.86300000     172.86200000      74.93600000  F      -0.30728646      -0.31478778      -0.31555805
C       48.00700000     172.11800000      75.94000000  F      -0.00115408      -0.23056154       0.39503292
C       48.53800000     172.35300000      73.53300000  F       0.22278354       0.05393819      -0.12158030
N       47.88300000     175.43300000      77.07900000  F      -1.72991109       0.81077408       1.62492548
C       48.07500000     175.99100000      78.43700000  F      -1.25051542      -0.86536156       0.03466047
C       47.60000000     174.96900000      79.48700000  F      -2.81183354       0.43016094      -2.57150630
O       46.50400000     174.40000000      79.36000000  F       1.51206786       0.58391651       0.02065500
C       47.23000000     177.28900000      78.56000000  F       1.06111984      -0.45279395       0.49105722
C       47.92700000     178.30100000      77.68600000  F       0.04986241       0.03257952      -0.58703936
C       47.16900000     177.86500000      79.97500000  F      -0.21348174      -0.40894815       0.21737286
C       46.91300000     179.26200000      77.19800000  F      -0.38845074       0.84239547      -0.09977257
N       45.06900000     177.49700000      72.37500000  F       1.98387746       1.08999349      -1.34782321
C       45.08700000     178.88400000      71.87400000  F       0.80462666      -0.43538229       0.22398511
C       45.16900000     178.92200000      70.35700000  F       3.18110728      -1.61198928       0.19621348
O       46.09600000     178.35500000      69.73900000  F      -1.55558895       0.62707683       1.05277264
C       46.33400000     179.63700000      72.44600000  F      -0.66866849       0.01231081      -0.51818974
C       46.39300000     179.61300000      73.94600000  F       0.08323721      -0.23977605       0.39444825
S       47.39400000     180.86300000      74.73100000  F       0.69438645       0.10571770      -0.56370827
C       49.08400000     180.44300000      74.22900000  F      -0.75070510      -0.02681709       0.08355127
N       44.31000000     179.72300000      69.76300000  F      -1.64360463       1.27102030      -0.61130590
C       44.37900000     180.09100000      68.37300000  F      -0.72259739       0.66174163      -0.10199396
C       43.70300000     181.47000000      68.24700000  F      -0.14161887      -0.91546851       1.47281680
O       42.76100000     181.74200000      68.96300000  F      -0.16729799      -0.24973318      -0.15765904
C       43.61800000     179.08600000      67.55700000  F       0.04007866      -0.28192283      -0.32032558
N       44.21300000     182.35000000      67.39100000  F       0.57851477       1.15391614      -1.77484132
C       43.68400000     183.70300000      67.15500000  F       0.04567985      -0.91999220       0.09381115
C       44.74000000     184.66900000      67.54400000  F       1.91469867      -2.21812173      -0.57472926
O       45.90700000     184.42800000      67.24000000  F      -1.11312172       0.77029217      -0.12990219
N       44.35800000     185.66900000      68.31100000  F      -1.87825338       1.64954569       0.73091746
C       45.21700000     186.65900000      68.81200000  F       1.02642974       0.12517159       0.59822230
C       46.03400000     186.08700000      69.94800000  F      -1.39346427       0.25298699       0.15951216
O       45.50900000     185.57800000      70.91900000  F      -0.26224236       0.04861095      -0.33343943
N       47.35700000     186.20700000      69.84900000  F       1.70377202       0.01176968       0.03640032
C       48.24700000     185.66100000      70.87300000  F       0.84097232       0.61440698       0.21692253
C       48.00300000     186.30600000      72.24300000  F       0.17083190      -2.52801599       0.76226987
O       47.89400000     185.60300000      73.25900000  F       0.19612865       0.61852884      -1.42791239
C       49.74500000     185.87000000      70.46700000  F      -0.92469550      -0.21476737       0.17492511
N       47.99700000     187.63100000      72.31600000  F      -0.31859088       1.39984929       0.25848968
C       47.79000000     188.29000000      73.60400000  F      -1.06210690      -0.15653191       0.16008445
C       46.37300000     187.97100000      74.17700000  F       2.02325391      -0.49775447       0.56191882
O       46.25200000     187.68900000      75.35200000  F       0.02041050       0.45038226       0.15473805
C       47.94400000     189.77600000      73.45900000  F       0.22481572       0.33958859       0.03888015
N       41.67600000     177.26100000      64.19100000  F       1.35255601       1.43676181      -0.57077916
C       42.83500000     178.06900000      63.66600000  F      -1.22160349      -1.33983659      -0.31520386
C       42.79500000     178.05500000      62.14600000  F      -3.28233991      -3.04724744       0.33335023
O       41.98100000     177.33200000      61.51700000  F       1.31132084       1.63679369       1.38526762
N       43.70000000     178.80000000      61.55400000  F       2.95610913       1.72292051      -0.61961006
C       43.77700000     178.96000000      60.13300000  F      -1.15905091      -0.53084604      -0.54782645
C       44.07100000     177.67100000      59.40100000  F      -1.45259197       0.50308510      -1.66540602
O       43.68700000     177.52300000      58.23400000  F       0.61403948       0.25518008       1.29822547
C       44.80300000     179.97300000      59.82800000  F       1.65663478      -0.02977463      -0.26025391
O       46.08600000     179.49100000      60.29100000  F      -0.79491856       1.00802169       0.18101272
N       44.71300000     176.72000000      60.08000000  F       0.56547781      -1.37349737       0.86094652
C       44.95800000     175.39500000      59.51400000  F       0.27669370      -0.03157930      -0.48245043
C       43.97000000     174.30600000      59.82900000  F       0.64066559      -0.93364290      -1.27949606
O       44.14200000     173.16500000      59.37800000  F      -0.11414417       1.30678385       0.82118961
N       49.08300000     175.18400000      55.16800000  F       0.16941917      -0.31393064       1.64687748
C       48.77300000     176.46600000      55.76000000  F       0.13386333       0.17034429       0.28730105
C       50.03300000     177.26300000      56.05900000  F      -0.75586094      -1.04579767       1.00375236
O       50.77800000     176.91400000      56.95100000  F       0.03960480      -0.20023548      -0.28409528
C       47.97300000     176.28200000      57.05300000  F      -0.31417621       0.81544100       0.24979831
C       47.64800000     177.61700000      57.74200000  F       0.23513109       1.04512647       0.94033119
O       47.64400000     178.66700000      57.04600000  F      -0.09370282      -1.45402387       0.75490796
O       47.47400000     177.60000000      58.99700000  F       0.11790840      -0.30661849      -2.60183910
N       50.18500000     178.39700000      55.37800000  F       0.57319332       1.41049236      -0.77511363
C       51.34500000     179.27200000      55.58400000  F       0.23426510       0.28544166       0.67269576
C       51.47100000     179.75500000      57.04700000  F       3.07972026      -0.37459062      -0.65988438
O       52.59100000     180.04300000      57.53400000  F      -2.40026324      -0.23454659      -1.12114541
C       51.30300000     180.47000000      54.66000000  F       0.05066902      -0.00726593      -0.04826325
N       50.33800000     179.82100000      57.73300000  F      -1.16048022       0.19008572       1.12751613
C       50.34100000     180.33300000      59.08900000  F      -0.74987493       0.42698265       0.66930229
C       50.44500000     179.24900000      60.14900000  F      -0.48717691       2.09161247       1.85749040
O       50.31300000     179.56900000      61.34700000  F       0.12406587      -0.77991660      -1.99341909
C       49.12600000     181.31500000      59.32700000  F       0.90357015      -1.66011831       0.40527542
C       49.21100000     182.37300000      58.33900000  F      -1.47676445      -0.27392900      -0.76963118
C       48.53100000     182.29000000      57.13500000  F       0.00985934       0.43971839      -0.90255773
C       49.95400000     183.46800000      58.56100000  F       1.47825481       1.49808351       0.36663533
C       48.65500000     183.29900000      56.16700000  F      -1.20628581      -2.30905252       0.57239402
C       50.14300000     184.42600000      57.58500000  F       0.25596769      -0.03516085       1.44866804
C       49.46900000     184.34700000      56.40300000  F       0.64100881       0.93384621      -0.52613348
O       49.67000000     185.32700000      55.48700000  F       0.05181310       0.73195044      -0.71385867
N       50.74300000     178.00900000      59.76100000  F       0.07781031      -1.32101515      -0.34471831
C       51.02000000     176.97300000      60.72600000  F       0.47290468      -0.64671383      -0.23504711
C       52.40300000     176.36000000      60.41500000  F       0.26788854       0.23072081      -4.70553144
O       52.83300000     176.22500000      59.18500000  F      -1.62573972       0.44136550       4.81109281
C       49.91600000     175.89400000      60.78300000  F      -0.46099539       0.52657463      -0.04489472
O       48.59300000     176.43000000      61.02500000  F       1.06894700      -0.27328150       0.06900145
N       58.01900000     190.54800000      73.59500000  F      -1.15274351       2.86980420      -0.75087472
C       56.60800000     190.95700000      73.70700000  F       0.35594442       0.27163932       0.52018862
C       56.06900000     191.48400000      72.40000000  F       0.98898202      -0.42335291       0.96365355
O       56.75700000     192.12400000      71.66200000  F       1.07648663       0.78007566      -0.75555214
C       56.46100000     192.09100000      74.76800000  F      -0.21321039      -0.24018137      -0.87702851
C       56.86500000     191.70400000      76.13100000  F       0.27707299      -0.01409490      -0.13736215
C       58.19500000     191.58900000      76.45600000  F       0.49566269       0.05234248      -0.29098246
C       55.92500000     191.41800000      77.08200000  F      -0.99511401       0.04065038       0.09074061
C       58.58700000     191.17200000      77.69800000  F      -0.93378356      -0.37468734       1.09711928
C       56.26300000     191.02800000      78.34700000  F       0.29030190      -0.24391113       0.20642724
C       57.59400000     190.87200000      78.65400000  F       0.99273937       0.28571191      -0.46097886
N       54.78400000     191.26700000      72.14300000  F      -2.23056053      -0.60800252       0.21545646
C       54.06500000     192.08500000      71.20700000  F      -0.48754632       0.71813028       0.05121429
C       53.39300000     193.30200000      71.92900000  F       1.58119527      -1.84015159       0.42007166
O       53.42100000     193.43500000      73.14300000  F       0.22892292      -0.51918170      -0.43286165
C       53.11400000     191.21700000      70.35300000  F      -0.35097961       0.26213639       0.40560819
C       51.76300000     190.96700000      70.99500000  F      -1.67047357      -0.71363236      -0.01293045
O       51.42500000     191.44700000      72.08100000  F       0.84524931       0.38011190      -0.03647291
O       50.94700000     190.26100000      70.36900000  F       2.09442984       0.65700555      -0.11727757
N       52.85200000     194.26100000      71.16400000  F      -0.98991785       0.69347781       0.32960336
C       52.41200000     195.50300000      71.82400000  F      -0.99936880       0.39404498       0.18243459
C       51.27800000     195.35200000      72.84000000  F       1.93874038       1.80136707       0.22336977
O       51.11000000     196.21600000      73.68500000  F      -0.04520292      -0.01309793      -0.37707722
C       51.90800000     196.33900000      70.63800000  F      -0.06862255       1.16995011       0.85618938
C       52.79800000     195.92400000      69.51600000  F      -0.00146154      -0.13412322      -1.45957885
C       52.91000000     194.41600000      69.70300000  F       0.56504025      -0.37704896      -0.37850013
N       44.18000000     170.99300000      67.55100000  F      -0.48993063      -2.46551344       1.26080615
C       43.11900000     169.96000000      67.53700000  F       0.52133644       0.51795032      -0.07302524
C       49.04800000     172.11100000      68.30100000  F       1.19136228      -0.19681373      -0.30955724
C       50.41400000     172.27400000      67.61400000  F       0.99020222      -2.63202922       1.86920838
O       51.40800000     171.53300000      67.90800000  F      -2.70500232       2.12776552      -0.78845456
N       51.47700000     189.61000000      60.46800000  F      -2.17122863      -0.26890387      -0.99831384
C       51.28700000     189.63400000      59.01600000  F       0.24880919       0.10308713       0.38223119
C       58.36100000     178.06100000      69.54600000  F      -0.62802903       0.36570351       0.43458359
C       57.29000000     178.48500000      70.54800000  F       1.30552927      -1.23086895      -1.37910919
O       57.54400000     178.47200000      71.71200000  F       0.68744086       0.26932526       1.84618614
N       48.37100000     174.86500000      80.53200000  F       2.03241598      -0.14269234       1.97971022
C       48.08100000     173.98100000      81.60400000  F      -0.26726834      -0.39351853       0.35905034
C       44.34400000     175.54900000      73.60400000  F      -0.24782562       0.85226010      -0.00968514
C       44.10400000     176.97400000      73.11200000  F      -2.08141813      -1.27518104       0.94555153
O       43.04800000     177.55200000      73.33400000  F       0.54159965      -0.27484674       0.10860462
N       45.34300000     187.98800000      73.32800000  F      -0.96878151       0.28261511      -1.09561818
C       44.01100000     187.70000000      73.78800000  F      -0.02789819      -0.20296172      -0.01829601
C       40.64600000     175.44500000      65.43000000  F       0.84905949       0.01479099      -0.20992181
C       41.89000000     176.12400000      64.89200000  F       1.97988747      -1.97482903       1.32042978
O       43.04500000     175.65300000      65.14300000  F      -3.01369387       1.36379676      -0.63155595
N       42.87500000     174.66500000      60.52700000  F      -0.53015578       0.35538915       0.67347470
C       41.90000000     173.71000000      60.95700000  F      -0.08480475      -0.20421544      -0.00389438
C       49.29000000     173.47900000      53.40900000  F       0.05434217       1.19545874       0.31640972
C       49.14800000     174.95100000      53.85500000  F      -0.07781826      -1.92878358      -1.11864147
O       49.04600000     175.81700000      53.03200000  F      -0.04875142       0.79593611      -0.71831229
N       53.10200000     176.00200000      61.50000000  F       1.53246827      -0.73215898       0.60007176
C       54.47400000     175.41800000      61.39000000  F      -0.99853427       0.44129775       0.02741732
C       60.05000000     189.24300000      73.95900000  F      -1.63188198      -0.05534806       0.07368190
C       58.49000000     189.38000000      73.95400000  F       2.99898431      -1.77271340      -0.01895232
O       57.80600000     188.43100000      74.22400000  F      -0.53208326      -0.64507142       0.56627554
N       50.51300000     194.28900000      72.73400000  F      -1.86220542      -2.03837384       0.20621088
C       49.41200000     194.11700000      73.68000000  F       0.33062918      -0.09638574      -0.24948928
O       44.57000000     181.16200000      63.51200000  F      -0.32678104      -0.12219480      -0.34472255
O       48.60300000     189.36900000      69.98000000  F      -1.09491010      -0.22683462       0.14706551
O       50.73300000     181.88100000      62.89200000  F       0.53139807      -0.32893857       0.07982592
H       48.27334347     178.74301041      61.92737471  F      -0.01594420      -0.00737932       0.02412202
H       48.47287774     179.91526746      63.04922893  F       0.04275428       0.02846006      -0.00790851
H       48.74284020     177.82669209      64.11053705  F       0.00060397       0.00027090       0.00296417
H       46.23166044     179.45568044      64.68812835  F      -0.00073795       0.00212023      -0.00067414
H       47.61042258     177.35109828      66.45957391  F       0.00411464      -0.00063690       0.00221312
H       45.93006988     177.31640717      65.94500205  F      -0.00194118      -0.00465360      -0.00266218
H       46.49123017     178.54791649      67.08845540  F      -0.00342396       0.00295418       0.00218048
H       48.12759088     175.73989080      64.52762564  F      -0.00429671       0.00218003      -0.00183674
H       45.43864261     175.01154596      63.65816358  F      -0.00171993       0.00030966       0.00102987
H       47.81953114     173.18306961      63.03418756  F       0.00073142      -0.00214140      -0.00142087
H       46.61209031     175.21269398      61.64435292  F      -0.00807520      -0.00791702      -0.00570612
H       44.80292982     173.06596928      62.35784012  F      -0.00073285       0.00078329      -0.00040735
H       45.57972328     172.05384255      63.57445802  F      -0.00048850      -0.00029050       0.00102419
H       45.98321498     171.86656558      61.85951194  F       0.00030533      -0.00065026      -0.00085989
H       44.42061768     174.31138832      65.47499583  F       0.00142627      -0.00078897       0.00152144
H       46.06203332     172.67262572      67.31989988  F       0.00016939      -0.00155806       0.00090326
H       44.52341936     173.42457404      69.18294018  F      -0.00001413      -0.00126184       0.00114010
H       43.39968255     174.96187000      67.06801075  F       0.00103680       0.00166249       0.00004947
H       45.89791287     175.67613715      67.64057696  F      -0.00062689       0.00173372      -0.00101703
H       46.68043304     174.65737113      68.84012651  F       0.00174571      -0.00113573      -0.00024337
H       45.40617408     175.78735950      69.32337494  F      -0.00027762      -0.00003240       0.00177497
H       49.54228790     173.71145364      66.39552503  F      -0.00315159       0.00101250      -0.00131671
H       52.33319638     172.86087232      66.09935548  F       0.00158935      -0.00310617       0.00024006
H       52.39137360     174.22737482      64.12351269  F       0.00114126      -0.00014342      -0.00159224
H       50.77350741     173.54513701      64.13249111  F      -0.00170767      -0.00149439      -0.00158086
H       53.81689421     175.15312199      65.76097034  F       0.00293385      -0.00108938       0.00263485
H       53.27573011     176.63639662      68.23512759  F      -0.00278434       0.00149013       0.00421591
H       55.61344528     176.24560101      68.82399873  F       0.00210256       0.00238643       0.00430789
H       54.80651131     174.70690457      68.48316820  F       0.00030165      -0.00336136       0.00178149
H       56.43558880     176.14652249      66.66558333  F       0.00280721      -0.00283009       0.00116208
H       52.97369255     177.50478084      65.27675817  F      -0.00221865       0.00024972      -0.00174605
H       55.19346828     179.44562042      65.11881571  F       0.00250665       0.00022533       0.00089856
H       54.54032658     178.22244055      63.07438776  F      -0.00019270      -0.00250322      -0.00099166
H       52.86007885     178.62405437      63.31704616  F      -0.00774056       0.00077325      -0.00039334
H       53.17701123     180.95500012      62.76018862  F      -0.02295480       0.00534560       0.00404777
H       54.92342733     180.84319063      62.85872668  F       0.00111458       0.00166784       0.00061030
H       53.24191834     179.33948791      60.80919508  F      -0.00471638      -0.00132665      -0.00123559
H       54.10271449     180.83653297      60.48006019  F      -0.00169685       0.00140205      -0.00203336
H       55.12898491     178.64929293      57.60784146  F      -0.00299474       0.00090077       0.00103993
H       53.96942468     179.42496454      58.49514096  F      -0.00351757       0.00033734      -0.00413435
H       57.10789730     177.79128510      58.46171891  F      -0.00014964       0.00017207       0.00159711
H       57.45331154     177.89082361      60.10335891  F      -0.00054118      -0.00025027      -0.00195981
H       54.92504221     181.65787376      65.28448319  F       0.00031167       0.00132916      -0.00545682
H       52.17997631     182.66609633      65.45282867  F      -0.02356897      -0.01156439      -0.01790855
H       54.68696074     183.70442074      66.90028755  F       0.00228382       0.00076762      -0.00077230
H       53.23894664     183.05088091      67.67446635  F      -0.00059588      -0.00235744       0.00085637
H       53.15912900     184.58444225      66.81288884  F      -0.00369589       0.00399828       0.00168585
H       51.84725449     184.61062636      64.35753005  F      -0.02489058      -0.01410522      -0.01535752
H       54.04764363     185.52747513      62.67797534  F       0.00303688      -0.00024723       0.00071998
H       52.32684178     185.69485420      60.70644146  F       0.01162687      -0.00165970      -0.00560681
H       50.59652801     185.10662277      62.28543213  F      -0.04742916      -0.01765457       0.02666217
H       53.10864657     182.91191302      61.75000338  F      -0.01959207       0.00004146       0.00846596
H       54.17164310     183.92371743      60.77860536  F       0.00250844       0.00055272       0.00018993
H       52.68686133     183.26436255      60.07869424  F      -0.00376403      -0.00097752       0.00162196
H       53.96737385     187.62835968      61.94539324  F       0.00013465       0.00106578       0.00105609
H       51.78566557     189.35430251      63.00594926  F      -0.00404462       0.00199719       0.00079800
H       54.78444691     189.96370583      62.63491841  F       0.00158839      -0.00028258      -0.00123378
H       53.99538895     189.77858267      64.20324752  F      -0.00110395      -0.00079513       0.00266810
H       53.58682989     191.14628656      63.15503232  F      -0.00078487       0.00180357      -0.00063026
H       55.79295203     178.63408120      69.12217915  F       0.00064351       0.00267302       0.00260085
H       55.45189028     179.83386107      71.76698329  F       0.00044672       0.00180378       0.00072011
H       53.45651026     179.19818038      69.51270446  F      -0.00127008      -0.00102842      -0.00102832
H       53.21102709     181.07634476      71.92001976  F      -0.00000272       0.00088284       0.00089546
H       52.38806611     179.53331092      71.75000100  F      -0.00077866      -0.00092146       0.00071035
H       51.98690502     180.86814529      70.67492657  F      -0.00075048       0.00025947      -0.00053255
H       54.89349255     181.81630995      70.18887450  F       0.00073841       0.00081176       0.00080086
H       53.62556861     181.63882224      68.98013913  F      -0.00040753       0.00068910      -0.00113759
H       55.17366210     180.82516478      68.75997007  F       0.00159138      -0.00057298       0.00012517
H       54.24891698     178.83226348      73.46071347  F      -0.00295635      -0.00050077      -0.00046115
H       53.53473743     175.99775761      73.00953817  F       0.00024914      -0.00143040      -0.00082094
H       53.10056567     176.00313792      75.48485824  F      -0.00185116      -0.00008447       0.00167678
H       53.55685860     177.68549406      75.54627702  F      -0.00127416       0.00118132       0.00149205
H       55.87174896     177.10198570      74.75619654  F       0.00137006       0.00156786       0.00011609
H       55.46740714     176.29341699      76.25133222  F       0.00157909       0.00145513       0.00168447
H       54.68175301     174.29333225      74.75662445  F      -0.00157420      -0.00108197      -0.00012345
H       55.52112834     175.06366895      73.44173158  F      -0.00158207      -0.00121883      -0.00210502
H       57.11229585     174.67458112      76.00302547  F       0.00066802       0.00025677       0.00168042
H       56.74136013     173.22603683      75.08707286  F       0.00009006      -0.00175668       0.00202159
H       57.94860792     175.66444343      73.85117246  F      -0.00276625      -0.00274345      -0.00709078
H       57.69723644     174.20896106      73.10081163  F      -0.00327125       0.00864115      -0.00766939
H       51.53981724     175.91545694      72.02942623  F      -0.00099742       0.00026026       0.00087507
H       49.56613243     177.94312357      72.74592622  F      -0.00016098       0.00210183       0.00065282
H       49.48404985     175.73303724      70.64482247  F      -0.00157839      -0.00189151      -0.00032431
H       48.30403404     177.00335691      70.81651819  F      -0.00282225      -0.00112970      -0.00062030
H       50.16522143     178.67875390      70.46687015  F       0.00130622       0.00188901       0.00064460
H       51.23644357     177.35120353      70.12930485  F       0.00235768       0.00162162       0.00080067
H       49.73534672     176.64230839      68.24210539  F      -0.00222178      -0.00129255       0.00021972
H       48.68421163     177.99863497      68.57717114  F      -0.00255272      -0.00026065      -0.00111483
H       50.57347757     179.58432966      68.14063280  F       0.00257828       0.00247531      -0.00172842
H       51.66611766     178.24588081      67.93640107  F       0.00144915       0.00052788       0.00197779
H       49.41547584     178.94909140      66.12910306  F       0.00103983      -0.00459893      -0.01530604
H       50.25014912     177.51958411      65.97951632  F      -0.00614383       0.00027850       0.01119439
H       50.33051264     175.09821459      74.16443442  F      -0.00209505      -0.00000188      -0.00006066
H       47.51559042     174.51587022      74.81842655  F      -0.00185763       0.00049905      -0.00066521
H       49.93155934     172.70606123      75.15791859  F       0.00206837      -0.00025944       0.00046917
H       46.94700580     172.27877222      75.74217327  F      -0.00124633       0.00004232      -0.00005202
H       48.20270542     172.45800463      76.95841552  F       0.00028473       0.00027729       0.00132395
H       48.19042850     171.04332831      75.90497179  F       0.00033404      -0.00124598      -0.00010234
H       47.48549889     172.51186513      73.29848722  F      -0.00115551       0.00031212      -0.00034480
H       48.74429426     171.28665680      73.43429211  F       0.00022378      -0.00132281       0.00017945
H       49.12244934     172.88173652      72.77910930  F       0.00078552       0.00059957      -0.00074756
H       46.91261915     175.36012905      76.76685539  F       0.00049646      -0.00088675       0.00201112
H       49.14172372     176.20224211      78.57391025  F       0.00158608       0.00085119       0.00034995
H       46.21733260     177.06860761      78.18870259  F      -0.00200924      -0.00041933      -0.00100775
H       48.73819583     178.79461586      78.23760350  F       0.00193754       0.00065291       0.00065082
H       48.41255062     177.79955897      76.83558147  F       0.00186147      -0.00066089      -0.00132089
H       48.17040388     178.06376357      80.35642708  F       0.00117638       0.00091155       0.00024555
H       46.69525775     177.16102385      80.66012452  F      -0.00036233      -0.00085722       0.00116296
H       46.60566015     178.79709513      80.01528594  F      -0.00117094       0.00080871       0.00000580
H       46.34047798     179.69530103      78.02038603  F      -0.00079658       0.00232165       0.00117830
H       46.19232781     178.78793796      76.52886163  F      -0.00236359      -0.00109380      -0.00041385
H       47.37731371     180.09958353      76.67755229  F       0.00012199       0.00125233      -0.00241249
H       46.00388578     177.07481403      72.41854206  F       0.00039359       0.00354239       0.00139950
H       44.15579338     179.35689596      72.21309932  F      -0.00160607       0.00045983       0.00048275
H       46.30025853     180.67526791      72.09906827  F       0.00085273       0.00149020      -0.00139827
H       47.24226903     179.20619371      72.01302125  F       0.00154636       0.00109368      -0.00201376
H       46.73423531     178.63175305      74.28695768  F      -0.00028909      -0.00121998       0.00132597
H       45.38320719     179.73748973      74.34649372  F      -0.00133995      -0.00181172       0.00205932
H       49.78069145     181.16474743      74.64576635  F       0.00067810       0.00068114       0.00013596
H       49.17122357     180.46353551      73.14684772  F      -0.00004578       0.00007587      -0.00104288
H       49.35985020     179.45269683      74.58391241  F      -0.00009054      -0.00048621       0.00034343
H       43.58929809     180.23475560      70.28806336  F       0.00012436      -0.00003172      -0.00213486
H       45.43586601     180.15926210      68.08162888  F       0.00214756       0.00071561      -0.00020963
H       42.57289784     179.07176837      67.86497441  F      -0.00128957      -0.00048009       0.00066728
H       44.01702899     178.08175209      67.70394088  F       0.00138050      -0.00136796      -0.00010482
H       43.65364763     179.32354178      66.49354005  F       0.00007271       0.00104494      -0.00135552
H       45.02941685     182.11431952      66.81224477  F      -0.00068293       0.00133363       0.00011418
H       42.78495590     183.82665596      67.76516895  F      -0.00134915       0.00002158       0.00086082
H       43.40775319     183.82385297      66.10409155  F      -0.00014008       0.00019552      -0.00163376
H       43.41339799     185.68314713      68.70910946  F       0.00140778      -0.00081667       0.00112961
H       44.65770489     187.53574883      69.15350758  F      -0.00051631       0.00155329       0.00025680
H       45.88102724     186.98323991      68.00424346  F       0.00111811       0.00031449      -0.00156195
H       47.80507546     186.71374391      69.06903691  F       0.00051929      -0.00039023       0.00061639
H       48.00206877     184.59562275      70.97055888  F      -0.00030451      -0.00212857      -0.00001234
H       49.97652127     186.93321682      70.43019414  F      -0.00012284       0.00134673      -0.00066896
H       49.94528651     185.46108236      69.47791927  F      -0.00017479      -0.00071923      -0.00124835
H       50.41787607     185.40363304      71.18483632  F       0.00054196      -0.00030231       0.00117837
H       48.14108270     188.22322279      71.48588010  F       0.00001067      -0.00085968       0.00116070
H       48.52928733     187.87180523      74.30328910  F       0.00117446      -0.00070769       0.00095724
H       47.20100001     190.16570942      72.76360739  F      -0.00076450       0.00057648      -0.00071155
H       48.92812566     190.03251353      73.06294654  F       0.00118766       0.00023615      -0.00042633
H       47.81092623     190.28545396      74.41374792  F      -0.00017770       0.00026817       0.00132780
H       40.75446168     177.51231413      63.82872185  F      -0.00092063       0.00141038      -0.00083045
H       42.80894974     179.08546344      64.06303857  F      -0.00008405       0.00079459       0.00159344
H       43.75490099     177.57658212      63.99790138  F       0.00138544      -0.00183234      -0.00008688
H       44.68640915     178.74538401      61.89980387  F      -0.00999545       0.01719739       0.00912201
H       42.78256727     179.29934992      59.80077264  F      -0.00162373       0.00039890      -0.00067630
H       44.59993770     180.92063841      60.33809370  F      -0.00157176      -0.00216832       0.00759883
H       44.87084879     180.17055208      58.75054872  F      -0.00452060       0.01134274       0.00072333
H       46.46066058     178.74463526      59.77692204  F       0.02579124       0.00071903       0.01198138
H       45.05528318     176.88563973      61.04485767  F       0.01697202       0.01152335      -0.00879887
H       44.95591521     175.53018921      58.42765640  F      -0.00587177       0.00189798      -0.00214452
H       45.96715977     175.06051401      59.76755166  F       0.00396633       0.00007851      -0.01025423
H       49.25330895     174.43553546      55.84193162  F      -0.00086081       0.00112674      -0.00035705
H       48.16586817     177.02387927      55.03188524  F      -0.00084766       0.00087175      -0.00095664
H       48.55644348     175.67932745      57.75097121  F       0.00046651      -0.00064558       0.00102901
H       47.04674257     175.73865231      56.85538697  F      -0.00095718      -0.00162508       0.00063719
H       49.53373226     178.66460404      54.63767325  F       0.00107683       0.00001988       0.00048951
H       52.23329678     178.65512292      55.37794904  F       0.00066452      -0.00037817      -0.00063513
H       50.41910284     181.07236064      54.86628982  F      -0.00086775       0.00077593       0.00044062
H       51.26395973     180.16378530      53.61468181  F      -0.00038805      -0.00062623      -0.00100890
H       52.17748359     181.10559180      54.80160407  F       0.00086298       0.00040322      -0.00014572
H       49.44790902     179.41076487      57.39423684  F      -0.00244137       0.00165272       0.00077485
H       51.26295087     180.92773326      59.17270154  F       0.00073831       0.00254330       0.00348133
H       48.18861184     180.75592426      59.23410872  F      -0.00155814      -0.00049836       0.00159961
H       49.15729083     181.70927747      60.34804453  F       0.00799467      -0.00090562       0.02065176
H       47.93450466     181.41543478      56.93351857  F       0.00104995      -0.00044865      -0.00029554
H       50.43634600     183.58821431      59.51898406  F      -0.00255361      -0.00250939       0.00570495
H       48.12602373     183.22501658      55.23351848  F       0.00090461      -0.00118323       0.00002816
H       50.77941560     185.27607961      57.76041608  F      -0.00101163      -0.00086656       0.00021065
H       49.12711247     185.16178960      54.68548215  F      -0.00193694      -0.00139417      -0.00085406
H       50.81917349     177.73358897      58.76086638  F       0.00011318      -0.00346756      -0.00064364
H       51.05821634     177.47254514      61.70837884  F       0.00033171       0.00103848       0.00063944
H       50.15257337     175.12716372      61.53061736  F      -0.00250961      -0.00191461       0.00061099
H       49.86740218     175.39287381      59.81012346  F      -0.00109231       0.00059044      -0.00211696
H       48.23355430     176.19237130      61.92056337  F       0.01181009       0.00910614      -0.01586512
H       58.63310472     191.29366583      73.26381666  F      -0.00134467      -0.00031316       0.00043230
H       56.04255118     190.06488121      74.01048985  F      -0.00078182      -0.00171741      -0.00008553
H       55.42383278     192.44560649      74.76899030  F      -0.00135782       0.00172648      -0.00078977
H       57.05856400     192.94559919      74.43701726  F      -0.00029336       0.00209084      -0.00098359
H       58.93539454     191.81055537      75.70638334  F      -0.00013374      -0.00040072       0.00027462
H       54.88320217     191.50671285      76.81920433  F       0.00010187      -0.00064158       0.00019148
H       59.63008939     191.06436994      77.94169485  F      -0.00043579      -0.00010169      -0.00023141
H       55.50157442     190.80932673      79.07749656  F       0.00020051      -0.00009635      -0.00032290
H       57.88445829     190.53899065      79.63630453  F      -0.00014770       0.00020449      -0.00034148
H       54.16916291     190.87792976      72.86026107  F      -0.00160272       0.00810883       0.00326504
H       54.84987673     192.49993285      70.55443982  F       0.00088214       0.00080737      -0.00159628
H       52.93238346     191.68392643      69.38278169  F      -0.00011992       0.00032382      -0.00189962
H       53.58665155     190.25441152      70.14386552  F       0.00062395      -0.00132922      -0.00231275
H       53.27958250     195.95865547      72.32027864  F       0.00281212      -0.00279008       0.00200844
H       50.85763476     196.10136590      70.43283491  F      -0.00157325      -0.00141630      -0.00024682
H       51.96291088     197.41435118      70.85392713  F      -0.00006551       0.00160322       0.00155182
H       52.37766381     196.18057257      68.53354827  F      -0.00179567       0.00062473      -0.00135396
H       53.78127230     196.40557158      69.58610401  F       0.00139209       0.00133851       0.00016646
H       53.84562296     194.01238624      69.30481677  F       0.00176058       0.00044463      -0.00085689
H       52.07118337     193.87725367      69.24861882  F      -0.00199854       0.00007556      -0.00176161
H       44.91702531     170.88549202      68.25462880  F      -0.00158343       0.00048069       0.00065386
H       42.33254138     170.27032889      66.85017660  F       0.00103564      -0.00168801      -0.00304506
H       42.68382116     169.83638057      68.52809040  F      -0.00290062       0.00236725       0.00023253
H       43.51852216     169.00512676      67.19776751  F       0.00087004      -0.00193833       0.00321898
H       48.31988634     172.80576322      67.88506500  F      -0.00391424       0.00055890      -0.00436916
H       49.14393600     172.30343253      69.36776102  F       0.00002488       0.00301085       0.00139947
H       48.67765945     171.09741953      68.16221615  F       0.00066541      -0.00249230       0.00142185
H       50.64923549     189.35051690      61.01119101  F       0.00032472       0.00169900      -0.00143682
H       52.26105268     189.72464658      58.53680984  F       0.00127407       0.00679524       0.00024205
H       50.67743107     190.48850232      58.72618093  F      -0.00611963      -0.00283911       0.00130702
H       50.81268530     188.71707309      58.66834341  F       0.00525725      -0.00412830      -0.00002052
H       58.00937181     178.18689109      68.52322499  F       0.00110064       0.00345911      -0.00089691
H       58.62208881     177.01512245      69.69548512  F      -0.00206029      -0.00183395      -0.00200394
H       59.25923695     178.66066883      69.67916279  F       0.00192368      -0.00164142       0.00243850
H       49.27181521     175.35411358      80.57649125  F      -0.00127399      -0.00104607      -0.00018210
H       47.13311387     173.47871624      81.40845648  F      -0.00230733       0.00108752       0.00120547
H       47.99208218     174.52568864      82.54454449  F       0.00272300       0.00062136       0.00123750
H       48.85627162     173.22041950      81.70329030  F       0.00000293      -0.00195296      -0.00167492
H       45.36691809     175.23367212      73.40380698  F       0.00168083       0.00142061       0.00437873
H       43.66308596     174.86078196      73.10739950  F       0.00296895      -0.00081088      -0.00430469
H       44.17070073     175.49015676      74.67666939  F      -0.00511891      -0.00093979      -0.00034399
H       45.51934361     187.88627332      72.32180994  F       0.00042635      -0.00445833      -0.00553462
H       44.03023106     187.56576109      74.86934322  F      -0.00126598       0.00563363       0.00116451
H       43.64610614     186.77756551      73.33504769  F       0.00217594      -0.00344128       0.00347228
H       43.33304378     188.51721947      73.54530077  F      -0.00111167      -0.00183449      -0.00558334
H       39.73814377     175.91252723      65.05393179  F      -0.00019929      -0.00317046      -0.00547551
H       40.63822723     175.48986522      66.51780358  F      -0.00324402       0.00535041       0.00024382
H       40.64700473     174.39524234      65.14069266  F       0.00308292      -0.00211854       0.00467569
H       42.71776589     175.64646808      60.82978226  F      -0.00164658       0.00050248       0.00382214
H       42.17638825     172.72585646      60.57914323  F      -0.00159083      -0.00040451      -0.00246256
H       40.91491951     173.96975410      60.57067549  F      -0.00113032       0.00240346       0.00207858
H       41.86319742     173.66890375      62.04586498  F       0.00208143      -0.00156453       0.00119380
H       49.36178284     173.42966101      52.32455468  F       0.00184517       0.00005365      -0.00068323
H       48.42530119     172.89851290      53.72420502  F      -0.00166466       0.00001158      -0.00123844
H       50.18630478     173.03317233      53.83554772  F      -0.00032602      -0.00093894       0.00192463
H       52.68282892     176.12945218      62.43355287  F       0.00038271      -0.00103433      -0.00476324
H       54.75477092     175.39513940      60.33805117  F       0.00136468       0.00083185       0.00068338
H       54.48891493     174.40334036      61.78256408  F       0.00008982      -0.00134240      -0.00233930
H       55.19397557     176.02843144      61.93095730  F       0.00069522      -0.00227985       0.00192597
H       60.53315190     190.18950850      73.72802416  F       0.00038374       0.00137748       0.00190290
H       60.35618204     188.50638836      73.21979533  F       0.00042220       0.00099910      -0.00206256
H       60.38928994     188.90662875      74.93588703  F       0.00003799      -0.00219613       0.00028311
H       50.88846760     193.40389898      72.33723451  F       0.00090783      -0.00828628      -0.00832646
H       49.33923847     195.00637556      74.30584941  F      -0.00408202       0.00108275      -0.00258770
H       49.58858700     193.25262001      74.32036987  F       0.00737464       0.00253232       0.00325488
H       48.47391406     193.98337590      73.14280907  F      -0.00091273      -0.00942811       0.00105222
H       55.95687546     179.06777589      61.56580573  F       0.00023959       0.00034128      -0.00059638
H       58.83210712     174.32334650      74.31666250  F      -0.00148539       0.00820969       0.00539812
H       51.01919326     179.00559768      65.81612717  F      -0.01148062       0.00286800      -0.00957138
H       44.35510866     180.43560061      62.89596721  F      -0.01111677       0.02269265      -0.01151095
H       44.20712818     181.96517800      63.10793174  F      -0.01941725      -0.01427214      -0.01346534
H       49.47492473     189.74168818      70.12369071  F      -0.00022980       0.00003727      -0.00061828
H       48.66687860     188.87554128      69.14210108  F       0.00083413      -0.00208648       0.00152266
H       50.76415677     182.79400911      62.55595471  F      -0.11195560       0.17839067      -0.05225229
H       49.86422863     181.73751572      63.30263148  F      -0.11320746       0.14290378      -0.01102604
N       49.54300000     186.95500000      65.83900000  F       1.18847765      -1.68377781      -2.09852527
C       53.00100000     189.76900000      66.93800000  F      -0.23832716      -1.64631188       0.07740620
C       50.61700000     188.90900000      66.87800000  F       1.52282055      -2.06274116      -0.03376459
C       51.17400000     191.17200000      66.78900000  F      -2.37654137       1.59693754       0.28881063
C       52.52800000     191.00800000      66.84900000  F       0.37371410       1.50239279      -0.17246024
O       50.39900000     184.24800000      65.60200000  F      -1.53560660       0.37375441       0.33515669
C       49.21100000     184.48700000      65.88300000  F       3.58454363       1.15754124      -1.42295014
N       48.40000000     183.55500000      66.32900000  F      -1.88126723      -1.56787870       0.66703452
C       48.71100000     182.15800000      66.51800000  F      -0.25663329      -0.10642995       0.17675970
B       47.86200000     181.26700000      65.38200000  F      -1.29553567       0.04030032      -1.23238652
O       48.09300000     181.50400000      63.85900000  F       0.22274164       0.78822229       1.33040449
O       46.36200000     181.60000000      65.51900000  F       1.23065352      -0.00818020       0.58737256
C       48.29600000     181.75500000      67.95500000  F      -0.31178657      -0.78854610      -0.98827580
C       48.94900000     182.52600000      69.07200000  F       0.65521543       0.55761270       0.04641491
C       50.44600000     182.57900000      68.87100000  F       0.53691773       0.30959248      -0.31701808
C       48.71900000     181.94600000      70.44400000  F      -0.65108994      -0.29655823       0.40682564
C       48.63200000     185.85900000      65.65200000  F      -0.68172553      -0.10574052       0.45786797
C       49.57600000     187.79600000      66.85700000  F       1.54920748       2.40109630      -0.05891338
O       48.72800000     187.85600000      67.68300000  F      -1.98434737      -0.56585446       1.92477256
C       52.02900000     188.76800000      66.95100000  F      -0.49078736      -1.88310117       0.01412416
Cl      52.47400000     187.12900000      67.11200000  F       0.66657042      -0.38285244       0.05806854
Cl      50.42800000     192.79300000      66.85900000  F       0.70315253      -0.21091181      -0.05875557
C       50.21800000     190.16200000      66.82700000  F      -0.34977512       2.54240939      -0.27515635
H       50.29994671     186.96655958      65.14441223  T      -0.00624033      -0.00222563       0.00140320
H       54.05069998     189.53409966      67.00068527  T       0.00027401       0.00029988       0.00043034
H       53.17925033     191.86732440      66.82828139  T       0.00059441       0.00028872       0.00048770
H       47.44213148     183.79552419      66.60004968  T      -0.00276032      -0.00348454      -0.00198107
H       49.76854922     181.97783546      66.31041250  T       0.00240112       0.00045068      -0.01095457
H       48.49761688     180.68689521      68.08420235  T      -0.00179640      -0.00185612       0.00037629
H       47.20780939     181.85074313      68.03315434  T      -0.00185602      -0.00219672       0.00039572
H       48.55192422     183.55708726      69.03558186  T      -0.00049016       0.00199212       0.00014210
H       50.86966760     181.57872903      68.80196153  T       0.00096523      -0.00237560       0.00018720
H       50.94639865     183.09210508      69.69389652  T       0.00185025       0.00199719       0.00155657
H       50.70482238     183.10904017      67.95290442  T      -0.00002415       0.00069879      -0.00178553
H       49.08758612     180.92132263      70.49882183  T       0.00162320      -0.00162226       0.00084915
H       47.65507780     181.92342132      70.68402424  T      -0.00175487      -0.00090900       0.00048331
H       49.22442327     182.52012063      71.22226583  T       0.00055369       0.00173741       0.00125513
H       48.20946270     185.90931016      64.64379258  T       0.00041889      -0.00105122      -0.00213394
H       47.79723130     186.01407403      66.34415985  T      -0.00204058       0.00013448      -0.00030206
H       49.16864190     190.40766224      66.80783128  T       0.00035906      -0.00000739      -0.00016117
H       47.44769034     182.20907080      63.66233285  T       0.01988780       0.02312854      -0.01753915
H       45.77576633     181.39816922      64.76804999  T       0.00066865       0.00367222      -0.00058382
