544
Properties=species:S:1:pos:R:3:move_mask:L:1:forces:R:3 BO2_MS_A_THRN=T |=T Arg19=T repaired=T +=T controlled=T bridge=T water=T charge=-1 energy=-2550.5073383801628 stress="0.0 0.0 0.0 0.0 0.0 0.0 0.0 0.0 0.0" pbc="F F F"
N       47.86000000     179.16600000      62.75300000  F       0.20012159      -0.10267841      -0.84012452
C       47.74100000     178.18400000      63.82800000  F      -0.23841708       0.17664122       0.71251896
C       46.89800000     177.01300000      63.45800000  F      -0.68385482       1.04101987      -1.09781500
O       45.92400000     177.16600000      62.74200000  F      -0.03474498       0.04398187       0.17462529
C       47.11500000     178.90200000      65.03000000  F       0.78749095      -0.00779579       1.17252328
O       48.05800000     179.83300000      65.54700000  F      -1.09524805       0.61035628      -0.69213143
C       46.75800000     177.97700000      66.20200000  F      -0.15942652      -0.22085012      -0.43488308
N       47.29700000     175.82200000      63.92600000  F       0.64961547      -1.25943771      -0.00793057
C       46.45400000     174.65200000      63.87400000  F       0.22060875      -0.44382816       0.63141115
C       46.46600000     174.00900000      65.26500000  F       1.09365562       1.09337980      -0.55161224
O       47.51200000     173.74100000      65.82500000  F       0.09189488      -0.39067833      -0.27777448
C       46.85700000     173.64600000      62.77200000  F      -0.70907776      -0.06342287      -0.14730490
O       47.03300000     174.32800000      61.52200000  F       0.02762663       0.21296939       0.49978904
C       45.74000000     172.58800000      62.63800000  F       0.45137079       0.13594682       0.00361351
N       45.27100000     173.88600000      65.86300000  F      -1.07592537      -0.14428474       0.55895692
C       45.10500000     173.16100000      67.09700000  F      -0.37673221      -0.30523495       0.12024936
C       44.05700000     172.10600000      66.86000000  F      -1.52117966       2.10052253      -2.61217834
O       43.14400000     172.33000000      66.03400000  F       1.42733285      -0.46980368       1.50703397
C       44.68600000     174.04700000      68.28800000  F       0.09797650       0.15210907      -0.54033685
O       43.45900000     174.68700000      68.01900000  F      -0.53647005      -0.05430200      -0.01369548
C       45.72600000     175.09400000      68.54400000  F       0.56960772       0.32907741       0.26265247
N       50.41500000     173.24300000      66.68500000  F       0.21208912       0.73405980      -1.02671450
C       51.64600000     173.72200000      66.09000000  F       0.16068098       0.30244594       0.85526518
C       52.22400000     174.79300000      67.03300000  F      -1.79549520      -0.87743093       1.46350688
O       51.71300000     174.99200000      68.14900000  F       0.80021692      -0.13763341      -1.70287451
C       51.44500000     174.21900000      64.66800000  F      -0.51323601       1.43441984      -0.41777753
C       50.85100000     175.67100000      64.62000000  F       0.72659302      -0.80094553       0.18919752
O       49.89900000     175.90100000      65.33700000  F      -0.97272514      -0.63601307       0.67197112
O       51.36800000     176.53800000      63.92800000  F       0.94305736      -0.25836394      -0.65883638
N       53.29800000     175.45600000      66.58800000  F       0.57217113       0.80578021      -1.15442809
C       53.98000000     176.37900000      67.42500000  F       0.17760170       0.56597063       0.74675280
C       54.42000000     177.68400000      66.77600000  F       0.97493468       0.85290806       1.84120051
O       55.29400000     178.39100000      67.32700000  F      -1.33682753      -1.48987049      -1.45407154
C       55.14400000     175.64800000      68.02800000  F       0.25521342      -0.01688419       0.75347879
O       56.10400000     175.32300000      67.08600000  F       0.32794284      -0.02097759      -0.29527203
N       53.73900000     178.07000000      65.67300000  F       0.02091676       0.02315164      -0.63973712
C       54.13100000     179.24900000      64.92000000  F      -0.63795372       0.21082393      -0.10908874
C       53.30200000     180.45100000      65.35500000  F      -0.47609159      -2.89140780       0.00894780
O       52.12100000     180.31100000      65.52100000  F      -1.00877371       0.30153912      -0.26465734
C       53.87800000     179.01400000      63.43500000  F       0.08983386       0.35444066      -0.34658760
C       54.02700000     180.29000000      62.55900000  F      -0.01904434      -0.45027950       0.80780265
C       54.11000000     179.93900000      61.10900000  F      -0.04461470      -0.05282839      -0.59167105
N       55.30700000     179.17700000      60.79000000  F      -0.27184608       0.19560649       0.76293507
C       55.63600000     178.74900000      59.56100000  F       0.90357206      -0.17048090       0.52937563
N       54.89600000     179.02000000      58.51500000  F      -1.05249300       0.19033500      -1.39567274
N       56.79600000     178.10500000      59.36800000  F       0.51642921      -0.35105104       0.10245508
N       53.93000000     181.57900000      65.50300000  F       2.05284763       2.54349970      -0.08781915
C       53.26600000     182.85600000      65.52000000  F      -0.04968555       0.43621137       0.05094454
C       53.69100000     183.73000000      64.34400000  F       2.22402954      -0.49145911       1.19767504
O       54.86600000     183.78000000      63.98800000  F      -0.91140299      -0.52103708      -0.13169343
C       53.60800000     183.58900000      66.80600000  F      -0.24877285       0.13322939      -0.05494900
N       52.76300000     184.56000000      63.88700000  F      -2.00820916       0.65747435      -0.37733547
C       52.95600000     185.45200000      62.79600000  F       0.44770407       0.46625898      -0.72246621
C       52.44100000     186.84600000      63.06900000  F      -1.06281775      -1.22519986       0.56852924
O       51.42100000     187.04100000      63.69000000  F       0.50767554       0.00178166      -0.76107230
C       52.35300000     184.90300000      61.47200000  F       0.17700672      -0.95387709       0.66803533
O       51.03100000     184.45400000      61.69800000  F      -0.69344745       0.37564257      -0.24492768
C       53.12900000     183.68100000      60.98200000  F       0.30972951       0.28787045      -0.04860485
N       53.14600000     187.82700000      62.51900000  F       1.30626283       1.53560079      -0.55451735
C       52.76100000     189.24900000      62.50900000  F       0.50552160      -0.77573198      -0.43292251
C       52.67800000     189.56500000      61.02800000  F       1.55943412       0.88496986       0.50264469
O       53.69300000     189.79000000      60.39100000  F      -0.08857082      -0.28998076       0.23326568
C       53.84300000     190.08700000      63.16900000  F      -0.14515778      -0.01545957      -0.09059509
N       56.06200000     178.77600000      70.10600000  F      -0.78090337       0.70903825      -1.05390263
C       55.01900000     179.19100000      70.99100000  F      -0.89168408      -0.86671934       0.08087577
C       54.41400000     177.93400000      71.61200000  F      -0.13400546      -0.66022865      -2.20121276
O       54.12100000     176.98500000      70.87400000  F       0.42565999       0.99439730       0.80455385
C       53.88000000     179.91700000      70.23400000  F       0.46934691       0.12406819       0.20468293
C       52.80800000     180.37200000      71.19200000  F      -0.49578772      -0.06538378       0.30084585
C       54.42500000     181.11400000      69.49900000  F       0.18700974       0.16258030      -0.36722236
N       54.14500000     177.97100000      72.92100000  F      -0.14847469      -0.14495356       1.52711902
C       53.36600000     176.92500000      73.57300000  F      -0.71899449       0.33945322      -0.23903074
C       51.87300000     177.28800000      73.49500000  F       2.58033585      -0.35752142       0.24966284
O       51.45600000     178.15600000      74.18100000  F      -0.84164546       1.94501623       1.46756272
C       53.75900000     176.74600000      75.01900000  F       0.09975103      -0.02847156       0.20989659
C       55.21400000     176.33700000      75.18500000  F       0.23623039      -0.32260185      -0.12930726
C       55.51700000     174.96900000      74.53300000  F      -0.11412195      -0.12539029       0.47674066
C       56.83900000     174.31600000      75.00400000  F      -0.33537382       0.40011591      -0.36535233
N       57.89700000     174.64600000      74.01500000  F       0.31307405      -0.00053938       0.00287348
N       51.13400000     176.62500000      72.64300000  F      -1.43214794      -1.87090869      -1.81135184
C       49.71600000     176.90100000      72.43200000  F      -0.35608161       0.20974588      -0.13784383
C       48.77200000     176.04900000      73.26900000  F      -3.31734405       2.16056609      -0.89926863
O       47.52800000     176.28000000      73.26500000  F       2.83453221      -0.53587483      -0.21575606
C       49.37100000     176.78000000      70.95000000  F      -0.84858260      -0.65325967       0.51555602
C       50.18100000     177.65300000      70.07500000  F       0.75097296       0.63805682       0.12215607
C       49.72600000     177.66300000      68.64600000  F      -0.03070811       0.02781373      -0.60136153
C       50.62200000     178.54800000      67.79200000  F      -0.21543140      -0.16242973      -0.99499829
N       50.30600000     178.48400000      66.33800000  F       0.54692755       0.12941787       1.08340733
N       49.31500000     175.10600000      74.01100000  F       1.29773307      -1.72568575       1.43685456
C       48.58100000     174.35100000      75.03000000  F      -0.25261489       0.14414742      -0.31728198
C       48.87400000     174.86500000      76.41100000  F      -0.32723271       0.38966908      -1.86847067
O       49.97800000     174.85800000      76.83600000  F       2.47693437      -0.51095329       0.80347368
C       48.86300000     172.86200000      74.93600000  F      -0.30576957      -0.31457809      -0.31417867
C       48.00700000     172.11800000      75.94000000  F      -0.00236331      -0.23169778       0.39699927
C       48.53800000     172.35300000      73.53300000  F       0.22286015       0.05476304      -0.12357141
N       47.88300000     175.43300000      77.07900000  F      -1.73005387       0.81091430       1.62770579
C       48.07500000     175.99100000      78.43700000  F      -1.24452801      -0.86676416       0.03100393
C       47.60000000     174.96900000      79.48700000  F      -2.80837238       0.41770754      -2.57563107
O       46.50400000     174.40000000      79.36000000  F       1.51371494       0.59263624       0.02521026
C       47.23000000     177.28900000      78.56000000  F       1.06327597      -0.44973560       0.49350526
C       47.92700000     178.30100000      77.68600000  F       0.04515693       0.03029689      -0.59979552
C       47.16900000     177.86500000      79.97500000  F      -0.21690465      -0.40756164       0.21544679
C       46.91300000     179.26200000      77.19800000  F      -0.38401407       0.84278677      -0.10142011
N       45.06900000     177.49700000      72.37500000  F       1.96359920       1.07786340      -1.35384497
C       45.08700000     178.88400000      71.87400000  F       0.80343516      -0.42960007       0.22283634
C       45.16900000     178.92200000      70.35700000  F       3.18036031      -1.61395168       0.19529290
O       46.09600000     178.35500000      69.73900000  F      -1.54900161       0.62989463       1.06283534
C       46.33400000     179.63700000      72.44600000  F      -0.64914679       0.02049646      -0.53422236
C       46.39300000     179.61300000      73.94600000  F       0.07509868      -0.23767628       0.39503331
S       47.39400000     180.86300000      74.73100000  F       0.69360531       0.10538199      -0.55456958
C       49.08400000     180.44300000      74.22900000  F      -0.75075924      -0.01827266       0.07063271
N       44.31000000     179.72300000      69.76300000  F      -1.65208628       1.27142997      -0.61120885
C       44.37900000     180.09100000      68.37300000  F      -0.72947799       0.65943275      -0.10806511
C       43.70300000     181.47000000      68.24700000  F      -0.14578899      -0.93411380       1.46332510
O       42.76100000     181.74200000      68.96300000  F      -0.14824887      -0.23873040      -0.13228402
C       43.61800000     179.08600000      67.55700000  F       0.03912773      -0.29396638      -0.31039920
N       44.21300000     182.35000000      67.39100000  F       0.64506762       1.13561349      -1.88730529
C       43.68400000     183.70300000      67.15500000  F       0.02725322      -0.92601180       0.07437208
C       44.74000000     184.66900000      67.54400000  F       1.91064959      -2.24334569      -0.56737883
O       45.90700000     184.42800000      67.24000000  F      -0.99732652       0.77906270      -0.16026532
N       44.35800000     185.66900000      68.31100000  F      -1.88116084       1.64157848       0.73338082
C       45.21700000     186.65900000      68.81200000  F       0.99571870       0.07173789       0.57072924
C       46.03400000     186.08700000      69.94800000  F      -1.44192741       0.17710506       0.10146895
O       45.50900000     185.57800000      70.91900000  F      -0.27610026       0.17193158      -0.28360862
N       47.35700000     186.20700000      69.84900000  F       1.68411143      -0.01783880       0.26938963
C       48.24700000     185.66100000      70.87300000  F       0.78281910       0.43890828       0.22807654
C       48.00300000     186.30600000      72.24300000  F       0.16776962      -2.55077004       0.75439369
O       47.89400000     185.60300000      73.25900000  F       0.19722922       0.62447279      -1.42324240
C       49.74500000     185.87000000      70.46700000  F      -1.12043553      -0.34012814       0.43922656
N       47.99700000     187.63100000      72.31600000  F      -0.33863729       1.37546309       0.31423131
C       47.79000000     188.29000000      73.60400000  F      -1.05259675      -0.17172319       0.15934063
C       46.37300000     187.97100000      74.17700000  F       2.03537705      -0.51053024       0.63577862
O       46.25200000     187.68900000      75.35200000  F       0.02537130       0.47237892       0.18121807
C       47.94400000     189.77600000      73.45900000  F       0.22112562       0.33802077       0.05402476
N       41.67600000     177.26100000      64.19100000  F       1.34965105       1.42385067      -0.53843066
C       42.83500000     178.06900000      63.66600000  F      -1.23172268      -1.33771674      -0.33623076
C       42.79500000     178.05500000      62.14600000  F      -3.28680526      -3.04046508       0.33794076
O       41.98100000     177.33200000      61.51700000  F       1.32002543       1.63553372       1.38313302
N       43.70000000     178.80000000      61.55400000  F       2.83561472       1.69688054      -0.60869543
C       43.77700000     178.96000000      60.13300000  F      -1.14734254      -0.54104104      -0.53178742
C       44.07100000     177.67100000      59.40100000  F      -1.45715624       0.49568693      -1.68198029
O       43.68700000     177.52300000      58.23400000  F       0.61526409       0.25423572       1.29417291
C       44.80300000     179.97300000      59.82800000  F       1.65977209      -0.00263901      -0.17460932
O       46.08600000     179.49100000      60.29100000  F      -0.73534571       0.96759896       0.20489439
N       44.71300000     176.72000000      60.08000000  F       0.57041180      -1.31027965       0.87478051
C       44.95800000     175.39500000      59.51400000  F       0.26147791      -0.01509038      -0.51762184
C       43.97000000     174.30600000      59.82900000  F       0.66044772      -0.94897439      -1.24697783
O       44.14200000     173.16500000      59.37800000  F      -0.11897774       1.30880957       0.80691546
N       49.08300000     175.18400000      55.16800000  F       0.15986425      -0.31164026       1.64730659
C       48.77300000     176.46600000      55.76000000  F       0.13093755       0.17133095       0.28594947
C       50.03300000     177.26300000      56.05900000  F      -0.75521867      -1.04632571       1.00367418
O       50.77800000     176.91400000      56.95100000  F       0.03708435      -0.19840228      -0.28274179
C       47.97300000     176.28200000      57.05300000  F      -0.31752988       0.81226255       0.25468373
C       47.64800000     177.61700000      57.74200000  F       0.22300877       1.04917767       0.93788797
O       47.64400000     178.66700000      57.04600000  F      -0.08457327      -1.45523320       0.75786211
O       47.47400000     177.60000000      58.99700000  F       0.14144911      -0.29914220      -2.57656444
N       50.18500000     178.39700000      55.37800000  F       0.57286899       1.41177294      -0.77413714
C       51.34500000     179.27200000      55.58400000  F       0.23579443       0.28361026       0.67322196
C       51.47100000     179.75500000      57.04700000  F       3.07897414      -0.37542417      -0.66269544
O       52.59100000     180.04300000      57.53400000  F      -2.40559095      -0.23341320      -1.12030633
C       51.30300000     180.47000000      54.66000000  F       0.05050415      -0.00702947      -0.04879173
N       50.33800000     179.82100000      57.73300000  F      -1.16782805       0.18988226       1.13320886
C       50.34100000     180.33300000      59.08900000  F      -0.74704774       0.43768089       0.66737022
C       50.44500000     179.24900000      60.14900000  F      -0.53499334       2.07305386       1.90082755
O       50.31300000     179.56900000      61.34700000  F       0.26762448      -0.63372204      -2.00163978
C       49.12600000     181.31500000      59.32700000  F       0.88503427      -1.64097643       0.41983492
C       49.21100000     182.37300000      58.33900000  F      -1.47959447      -0.27635455      -0.76682985
C       48.53100000     182.29000000      57.13500000  F       0.00895865       0.44017263      -0.89320880
C       49.95400000     183.46800000      58.56100000  F       1.46052900       1.50916579       0.39598542
C       48.65500000     183.29900000      56.16700000  F      -1.21036602      -2.31474105       0.57736827
C       50.14300000     184.42600000      57.58500000  F       0.25245608      -0.03423396       1.45644112
C       49.46900000     184.34700000      56.40300000  F       0.64524060       0.93574182      -0.52477535
O       49.67000000     185.32700000      55.48700000  F       0.04085637       0.72414465      -0.71311890
N       50.74300000     178.00900000      59.76100000  F       0.10998796      -1.31907003      -0.36650275
C       51.02000000     176.97300000      60.72600000  F       0.46305076      -0.64954508      -0.23300347
C       52.40300000     176.36000000      60.41500000  F       0.26709681       0.22418724      -4.70407543
O       52.83300000     176.22500000      59.18500000  F      -1.62585151       0.44490437       4.81169421
C       49.91600000     175.89400000      60.78300000  F      -0.49421588       0.50965396      -0.03479830
O       48.59300000     176.43000000      61.02500000  F       1.04097317      -0.26291610       0.03725758
N       58.01900000     190.54800000      73.59500000  F      -1.14935406       2.86689006      -0.75817182
C       56.60800000     190.95700000      73.70700000  F       0.35476584       0.26665102       0.51732881
C       56.06900000     191.48400000      72.40000000  F       0.99279391      -0.42908420       0.95991605
O       56.75700000     192.12400000      71.66200000  F       1.07385276       0.78491126      -0.75062764
C       56.46100000     192.09100000      74.76800000  F      -0.21592207      -0.23800866      -0.87789002
C       56.86500000     191.70400000      76.13100000  F       0.27699643      -0.01344178      -0.13748752
C       58.19500000     191.58900000      76.45600000  F       0.49500072       0.05253780      -0.29041806
C       55.92500000     191.41800000      77.08200000  F      -0.99534448       0.03921321       0.09070821
C       58.58700000     191.17200000      77.69800000  F      -0.93408820      -0.37481240       1.09683690
C       56.26300000     191.02800000      78.34700000  F       0.29030094      -0.24433022       0.20608735
C       57.59400000     190.87200000      78.65400000  F       0.99260128       0.28596328      -0.46106335
N       54.78400000     191.26700000      72.14300000  F      -2.25480255      -0.59726259       0.20230746
C       54.06500000     192.08500000      71.20700000  F      -0.48445656       0.73454324       0.04063060
C       53.39300000     193.30200000      71.92900000  F       1.58481693      -1.83736404       0.41981994
O       53.42100000     193.43500000      73.14300000  F       0.22848125      -0.51986305      -0.43298411
C       53.11400000     191.21700000      70.35300000  F      -0.30662551       0.12029719       0.42780425
C       51.76300000     190.96700000      70.99500000  F      -1.65605935      -0.72440037      -0.01899044
O       51.42500000     191.44700000      72.08100000  F       0.83273071       0.38681446      -0.05298416
O       50.94700000     190.26100000      70.36900000  F       1.97643839       0.71018045      -0.08586742
N       52.85200000     194.26100000      71.16400000  F      -0.99113335       0.69551698       0.36115076
C       52.41200000     195.50300000      71.82400000  F      -0.98777674       0.38890121       0.17887147
C       51.27800000     195.35200000      72.84000000  F       1.94309236       1.80256478       0.25133499
O       51.11000000     196.21600000      73.68500000  F      -0.05336968      -0.00726210      -0.38230414
C       51.90800000     196.33900000      70.63800000  F      -0.06516178       1.17591918       0.86826975
C       52.79800000     195.92400000      69.51600000  F       0.00481498      -0.12040152      -1.44672158
C       52.91000000     194.41600000      69.70300000  F       0.60562970      -0.35182031      -0.36203299
N       44.18000000     170.99300000      67.55100000  F      -0.47515311      -2.48582503       1.26257150
C       43.11900000     169.96000000      67.53700000  F       0.51926886       0.52706548      -0.06645875
C       49.04800000     172.11100000      68.30100000  F       1.18451382      -0.17373197      -0.31769074
C       50.41400000     172.27400000      67.61400000  F       0.98065957      -2.67200932       1.83241400
O       51.40800000     171.53300000      67.90800000  F      -2.69343269       2.14009676      -0.77214820
N       51.47700000     189.61000000      60.46800000  F      -2.20540718      -0.25143807      -0.99462538
C       51.28700000     189.63400000      59.01600000  F       0.26849398       0.08118836       0.41103474
C       58.36100000     178.06100000      69.54600000  F      -0.64137575       0.35549592       0.43251980
C       57.29000000     178.48500000      70.54800000  F       1.31995991      -1.18768490      -1.37813497
O       57.54400000     178.47200000      71.71200000  F       0.67509360       0.24638632       1.85020441
N       48.37100000     174.86500000      80.53200000  F       2.02660134      -0.13168586       1.99055218
C       48.08100000     173.98100000      81.60400000  F      -0.26451375      -0.39825059       0.34787801
C       44.34400000     175.54900000      73.60400000  F      -0.24740400       0.85366192      -0.04214295
C       44.10400000     176.97400000      73.11200000  F      -2.06179095      -1.25534316       0.99358030
O       43.04800000     177.55200000      73.33400000  F       0.52848230      -0.27300212       0.09411274
N       45.34300000     187.98800000      73.32800000  F      -1.03214541       0.27386723      -1.22784032
C       44.01100000     187.70000000      73.78800000  F       0.01731916      -0.21077728       0.01120767
C       40.64600000     175.44500000      65.43000000  F       0.85296972       0.03724643      -0.20595856
C       41.89000000     176.12400000      64.89200000  F       1.97894135      -2.00937578       1.25573997
O       43.04500000     175.65300000      65.14300000  F      -3.00389274       1.38959302      -0.61498636
N       42.87500000     174.66500000      60.52700000  F      -0.53934347       0.36105014       0.66063757
C       41.90000000     173.71000000      60.95700000  F      -0.07676098      -0.20408565       0.00783157
C       49.29000000     173.47900000      53.40900000  F       0.04355575       1.19758267       0.31456592
C       49.14800000     174.95100000      53.85500000  F      -0.04908645      -1.93335560      -1.12002034
O       49.04600000     175.81700000      53.03200000  F      -0.05635668       0.79357660      -0.71510139
N       53.10200000     176.00200000      61.50000000  F       1.53628829      -0.72255999       0.59964325
C       54.47400000     175.41800000      61.39000000  F      -1.00040331       0.43740331       0.02684080
C       60.05000000     189.24300000      73.95900000  F      -1.63339837      -0.05513276       0.06127703
C       58.49000000     189.38000000      73.95400000  F       2.99893098      -1.76792748       0.00999629
O       57.80600000     188.43100000      74.22400000  F      -0.53114175      -0.64424361       0.56106982
N       50.51300000     194.28900000      72.73400000  F      -1.91048989      -2.06495132       0.18419530
C       49.41200000     194.11700000      73.68000000  F       0.38544185      -0.08902618      -0.25233225
O       44.57000000     181.16200000      63.51200000  F      -0.50431685      -0.05487701      -0.48309717
O       48.60300000     189.36900000      69.98000000  F      -0.94132291      -0.50218137      -0.31314527
O       50.73300000     181.88100000      62.89200000  F       0.20640839       0.04571378       0.14605976
N       51.87500000     188.49000000      66.29100000  F       0.19657878       0.39340497      -0.08325951
C       51.24300000     187.80100000      67.25400000  F       0.96750601      -0.10450217       0.73078609
C       51.87900000     187.57200000      68.49100000  F       1.25495824       1.52726448      -1.47183052
N       53.08500000     188.13200000      68.73400000  F      -0.52219414      -0.73950685       0.71886153
C       53.69200000     188.83900000      67.79400000  F      -1.23558689      -0.18520498      -0.80178677
C       53.07300000     189.03000000      66.56800000  F      -0.62992765      -0.68218722       0.99906360
C       49.97700000     187.08900000      66.95300000  F       0.47954866      -0.45003130       1.33526435
O       49.22000000     186.75300000      67.85200000  F      -0.11183167       0.65387154      -0.12710004
N       49.80900000     186.66500000      65.68700000  F      -0.45182894       0.25009510      -0.21613080
C       48.70400000     185.84800000      65.26000000  F       0.11410994      -0.61718951       0.07052356
C       48.40700000     186.17400000      63.81100000  F      -0.54788463      -0.15421696      -0.39713257
C       47.36200000     185.28400000      63.18300000  F       0.05978442      -0.22192127      -0.68819410
C       46.04900000     185.27100000      63.62900000  F      -0.31092986      -0.68866645      -0.61392488
C       45.09900000     184.46200000      62.98000000  F       0.21909402       0.53322737       0.80985594
C       45.41500000     183.65600000      61.91300000  F       0.77598275       0.13591396      -0.24826594
C       46.71700000     183.67000000      61.42700000  F       0.49824810       0.88728537       0.98364553
C       47.68300000     184.49600000      62.06300000  F      -0.96132391      -0.56980716      -0.06476963
C       49.10200000     184.38700000      65.39000000  F       1.64595662       0.77251041      -1.23990048
O       50.11000000     183.99900000      64.83200000  F       0.17540504       0.06593801      -0.24456210
N       48.35800000     183.54000000      66.08000000  F      -1.79082616      -1.02886788       1.04824235
C       48.60800000     182.12100000      66.22200000  F      -0.17932587       0.43106971       0.54015065
C       48.26300000     181.70300000      67.66500000  F       0.16332330      -0.26880919      -0.97820341
C       49.00500000     182.50400000      68.72100000  F       0.11671850       0.19344925       0.33849634
C       50.50000000     182.64600000      68.45100000  F       0.05413060       0.03519954      -0.19962526
C       48.78800000     181.86700000      70.08400000  F      -0.14947235       0.00069875       0.29154724
B       47.72300000     181.23600000      65.16900000  F      -0.39213451      -0.08846665      -0.70230623
O       48.09200000     181.51000000      63.70100000  F       0.16572843       0.33297333       0.99473749
O       46.24600000     181.62500000      65.24400000  F       1.10207441      -0.27784457       0.58305726
H       48.05129151     178.69947773      61.85249151  T      -0.01462753      -0.01444175       0.00287436
H       48.63070796     179.82928873      62.94555821  T       0.00683074      -0.00463856      -0.01060871
H       48.74171675     177.82146381      64.10692982  T       0.00071804      -0.00162664      -0.00437069
H       46.23289235     179.46267816      64.70477426  T      -0.00902048      -0.01891591      -0.00667992
H       47.62000650     177.37232455      66.47707457  T       0.00130989      -0.00588275      -0.00002138
H       45.95009118     177.29605111      65.93434802  T      -0.00583905      -0.00055162       0.00112156
H       46.46322608     178.54584507      67.08070344  T       0.00178430       0.00195365       0.00463550
H       48.12535264     175.74087658      64.53045619  T       0.00039816      -0.00048337      -0.00059842
H       45.43788433     175.01130977      63.66154290  T       0.00299779      -0.00021555      -0.01485687
H       47.81915871     173.18179558      63.03304257  T       0.00019399       0.00243249       0.00361398
H       46.58301884     175.19858505      61.63312558  T       0.00709368       0.00239249      -0.00623361
H       44.80266751     173.06590289      62.35847722  T       0.00026042       0.00041471      -0.00030810
H       45.58006212     172.05387347      63.57461861  T      -0.00071534       0.00032451       0.00009464
H       45.98279954     171.86620775      61.85961517  T      -0.00001858      -0.00010472       0.00007064
H       44.42052215     174.31075943      65.47495591  T       0.00089549       0.00077705      -0.00115666
H       46.06047950     172.67054849      67.32028544  T       0.00155216       0.00453782       0.00303803
H       44.52406161     173.42390698      69.18260125  T       0.00336056      -0.00105171      -0.00014042
H       43.40073744     174.96247798      67.06803050  T       0.00117589      -0.00058869      -0.00026539
H       45.88104456     175.69069733      67.64704799  T       0.00283114      -0.00114278      -0.00158755
H       46.68658199     174.65564938      68.81741900  T       0.00039948       0.00018607       0.00317535
H       45.41640177     175.77389916      69.33910964  T      -0.00117187       0.00245696      -0.00117750
H       49.54273773     173.71463271      66.39858296  T      -0.00002177       0.00004988       0.00015456
H       52.33274016     172.86036636      66.10018940  T       0.00169915       0.00140614      -0.00469368
H       52.39118385     174.22675239      64.12308231  T      -0.00017730       0.00029834      -0.00035301
H       50.77269613     173.54522846      64.13311889  T      -0.00011116       0.00043720      -0.00043850
H       53.81663047     175.15404098      65.76047280  T       0.00065277      -0.00078346       0.00071523
H       53.27614029     176.63611034      68.23559337  T      -0.00261531       0.00278297      -0.00320803
H       55.61335720     176.24491615      68.82453025  T      -0.00077382       0.00067512      -0.00008611
H       54.80695857     174.70628380      68.48237835  T      -0.00289565       0.00159036       0.00104866
H       56.44027138     176.14690577      66.67003582  T      -0.00252173      -0.00061194      -0.00285885
H       52.93662435     177.53936262      65.30654116  T      -0.00081623       0.00084098       0.00059294
H       55.19347423     179.44579218      65.11904715  T       0.00013346      -0.00044170      -0.00030899
H       54.54109312     178.22287171      63.07456526  T      -0.00004109       0.00028952      -0.00067923
H       52.86123962     178.62063812      63.31861127  T      -0.00012639       0.00037665       0.00005813
H       53.18825975     180.96585659      62.75989391  T      -0.00058716      -0.00018814      -0.00176743
H       54.92817662     180.83698501      62.85668537  T      -0.00037439      -0.00006327       0.00117701
H       53.24257091     179.33915396      60.80804667  T      -0.00092442       0.00081547       0.00110009
H       54.10316411     180.83646770      60.47979592  T      -0.00025143       0.00006794       0.00012588
H       55.12939632     178.65015661      57.60763387  T      -0.00018638      -0.00100252       0.00035856
H       53.96953088     179.42520094      58.49438631  T       0.00010147       0.00022150       0.00067515
H       57.10997713     177.79560889      58.46099213  T      -0.00014439      -0.00108885       0.00031396
H       57.45564937     177.89513340      60.10245620  T      -0.00056276      -0.00122564       0.00017309
H       54.92503052     181.65779140      65.28488333  T      -0.00030982       0.00020171      -0.00136827
H       52.18172652     182.66627117      65.44801413  T      -0.00050322       0.00110644       0.00290253
H       54.68688385     183.71149430      66.89335722  T       0.00097559      -0.00181700       0.00188326
H       53.25122537     183.04485720      67.67552075  T      -0.00222408       0.00103519       0.00098480
H       53.15586499     184.58238248      66.82096841  T       0.00180341       0.00180954      -0.00058623
H       51.80680039     184.53112145      64.26607008  T       0.00003489       0.00019181       0.00010203
H       54.04776699     185.52804678      62.67859905  T      -0.00000195      -0.00054711      -0.00042242
H       52.31385822     185.69234082      60.70578485  T       0.00414572       0.00199394       0.00186980
H       50.89235915     184.07992958      62.60249479  T      -0.00057472       0.00316828       0.00104505
H       53.08951813     182.90511856      61.74246463  T      -0.00043588       0.00024799       0.00030245
H       54.17608993     183.91831000      60.79578301  T       0.00013178       0.00014778       0.00067167
H       52.69637762     183.27528501      60.06908676  T       0.00026944       0.00023590      -0.00027488
H       53.96793427     187.62875119      61.94596054  T       0.00012667       0.00064473      -0.00001708
H       51.78667603     189.34325300      63.01137774  T       0.00225729       0.00734839       0.00295199
H       54.72150406     190.11221110      62.52455680  T       0.01464982       0.01937813      -0.00155929
H       54.15132007     189.64391890      64.11053955  T       0.01996383       0.00314916       0.01048886
H       53.51684881     191.11378143      63.33212115  T       0.00416097       0.01275089       0.02091874
H       55.79312607     178.63354327      69.12218074  T       0.00025215      -0.00020426      -0.00004250
H       55.45203535     179.83367583      71.76717794  T       0.00017963       0.00163779      -0.00146637
H       53.45683609     179.19813349      69.51238807  T      -0.00044280       0.00024299       0.00003540
H       53.21127485     181.07375985      71.92235249  T      -0.00003584       0.00011477      -0.00007274
H       52.38401772     179.53327308      71.74689358  T       0.00008284       0.00003359       0.00013198
H       51.99002431     180.87248714      70.67203591  T      -0.00009429      -0.00007812       0.00002763
H       54.88801092     181.81946710      70.18935850  T       0.00087702      -0.00030980      -0.00001853
H       53.62625550     181.63445797      68.97509270  T      -0.00026529       0.00076059       0.00072149
H       55.17799368     180.82544556      68.76424036  T      -0.00061563       0.00000867      -0.00085379
H       54.24613443     178.83296732      73.46004628  T      -0.00097771       0.00032240      -0.00036475
H       53.53436639     175.99794067      73.00896942  T       0.00211035      -0.00101511       0.00237631
H       53.10039517     176.00338028      75.48510325  T      -0.00001043       0.00004744       0.00007666
H       53.55662082     177.68561896      75.54610262  T       0.00065623      -0.00032351       0.00080236
H       55.87160889     177.10209575      74.75605430  T       0.00020864      -0.00012542       0.00009421
H       55.46766661     176.29394441      76.25132453  T       0.00014630      -0.00023163      -0.00004152
H       54.68189575     174.29323644      74.75705774  T      -0.00009493       0.00014820       0.00011345
H       55.52073476     175.06262402      73.44157278  T      -0.00024713       0.00080487       0.00007366
H       57.11167936     174.67756930      76.00222358  T       0.00037025      -0.00018800      -0.00000146
H       56.74322112     173.22609033      75.09039340  T      -0.00272280       0.00019896      -0.00008568
H       57.92352742     175.66053772      73.82386644  T       0.00479398       0.00492334       0.00326754
H       57.71660942     174.18141971      73.11042270  T      -0.00446517       0.00233150      -0.00541435
H       51.53969168     175.91560016      72.02924329  T       0.00008023      -0.00040176       0.00054690
H       49.56627020     177.94337595      72.74562315  T      -0.00002193      -0.00071185       0.00236060
H       49.48365803     175.73299788      70.64464236  T       0.00004165      -0.00005941       0.00025370
H       48.30381183     177.00322116      70.81647251  T       0.00000760       0.00002361       0.00011923
H       50.16594566     178.67839811      70.46749092  T      -0.00009390      -0.00014689       0.00037529
H       51.23649294     177.35103651      70.12874196  T       0.00001845       0.00009752       0.00005692
H       49.73464305     176.64225095      68.24233941  T      -0.00014198      -0.00009242       0.00024457
H       48.68462395     178.00000403      68.57712848  T      -0.00009463      -0.00017830       0.00016006
H       50.58111970     179.58782581      68.12836941  T      -0.00026447      -0.00042992       0.00127841
H       51.66853970     178.24775029      67.91203141  T      -0.00016080      -0.00001924       0.00102447
H       49.48764584     179.02079413      66.07918377  T      -0.00093592      -0.00198488      -0.00130385
H       50.19317100     177.53308037      65.99661787  T       0.00093752      -0.00016180       0.00013025
H       50.33026008     175.09954713      74.16589206  T       0.00012619      -0.00121639      -0.00125815
H       47.51568610     174.51593999      74.81828273  T      -0.00026589      -0.00100153       0.00069021
H       49.93159439     172.70607024      75.15806678  T       0.00002792      -0.00045119      -0.00050601
H       46.94696691     172.27887943      75.74237984  T       0.00000536      -0.00001973      -0.00008204
H       48.20289870     172.45774455      76.95850317  T      -0.00003571       0.00004395      -0.00000571
H       48.19032833     171.04330997      75.90475524  T      -0.00004615      -0.00001344       0.00001899
H       47.48603810     172.51409268      73.29754610  T      -0.00007318      -0.00025931       0.00007290
H       48.74213499     171.28618308      73.43497619  T       0.00022514       0.00003691      -0.00012120
H       49.12411048     172.88020379      72.77929887  T      -0.00022233       0.00018990      -0.00006356
H       46.91239250     175.35844589      76.76807346  T      -0.00011456      -0.00056972       0.00053468
H       49.14181179     176.20237434      78.57358698  T      -0.00026019       0.00029201       0.00137751
H       46.21748668     177.06842878      78.18817848  T      -0.00114186      -0.00161193       0.00401839
H       48.73937713     178.79438868      78.23606973  T      -0.00040478       0.00080863      -0.00011654
H       48.41110558     177.79890809      76.83503888  T       0.00003273      -0.00066569       0.00042370
H       48.16976934     178.07454274      80.35229764  T       0.00012220      -0.00140709       0.00131253
H       46.70524244     177.15647072      80.66227756  T      -0.00155645       0.00073108       0.00016503
H       46.59582014     178.79103563      80.01679681  T       0.00129692       0.00115562       0.00006389
H       46.35414395     179.71059840      78.02157362  T      -0.00267702      -0.00168925       0.00086505
H       46.18108288     178.78398167      76.54394950  T       0.00087670      -0.00031633      -0.00275964
H       47.37613618     180.08898436      76.65955945  T       0.00080488       0.00235089       0.00202122
H       46.00280256     177.07246760      72.41447961  T      -0.00038810      -0.00084324      -0.00043194
H       44.15578366     179.35691773      72.21317321  T      -0.00007497       0.00040082      -0.00081437
H       46.30439899     180.67522203      72.09684763  T      -0.00002651      -0.00000129       0.00000135
H       47.24204244     179.20506364      72.01345357  T       0.00008263       0.00002764       0.00016937
H       46.73344009     178.63155862      74.28713680  T       0.00108543       0.00106929       0.00190971
H       45.38318491     179.73740439      74.34659913  T      -0.00014174       0.00052029      -0.00054162
H       49.78176644     181.15918712      74.65354983  T      -0.00079169       0.00053099       0.00040686
H       49.17291465     180.47431377      73.14691451  T      -0.00106586       0.00020362      -0.00008176
H       49.35645527     179.44886353      74.57537057  T      -0.00092178      -0.00005592       0.00053925
H       43.58945722     180.23516184      70.28789655  T      -0.00003001      -0.00039051       0.00031784
H       45.43636971     180.15956461      68.08370376  T      -0.00106275      -0.00375440      -0.00450454
H       42.57389109     179.06858032      67.86838098  T      -0.00033235       0.00032143      -0.00034135
H       44.01980542     178.08233562      67.70141255  T      -0.00048534      -0.00052661      -0.00076632
H       43.64897226     179.32458263      66.49376456  T       0.00138980       0.00080712      -0.00004788
H       44.97996028     182.09177005      66.75337748  T       0.01641344       0.00706644       0.01437924
H       42.78463779     183.82615294      67.76487395  T       0.00051897       0.00230884       0.00020977
H       43.40816975     183.82376010      66.10362323  T       0.00030856      -0.00000295      -0.00003771
H       43.41497850     185.68031626      68.71291384  T      -0.00006645       0.00002219      -0.00016257
H       44.65683819     187.53466597      69.15502756  T      -0.00105601      -0.00027839      -0.00106241
H       45.87877768     186.98562965      68.00388656  T       0.00047292       0.00025606       0.00050593
H       47.82784922     186.44440736      68.96970915  T       0.00004718       0.00021419       0.00007722
H       48.00547839     184.59310886      70.96555504  T       0.00125450      -0.00035100      -0.00114476
H       49.96399371     186.93532198      70.47888685  T       0.00029996       0.00053352       0.00110920
H       49.92437227     185.48584142      69.46431974  T      -0.00020595       0.00046031      -0.00079531
H       50.41925349     185.37657115      71.16540005  T       0.00046613      -0.00094276      -0.00018177
H       48.12897866     188.22469679      71.48648847  T       0.00002015       0.00000065      -0.00000596
H       48.52906174     187.87140708      74.30332262  T       0.00106996       0.00202500       0.00003099
H       47.20161537     190.16569899      72.76294037  T       0.00013076       0.00020662      -0.00003421
H       48.92916484     190.03297590      73.06611705  T       0.00001691       0.00004004       0.00003216
H       47.80892415     190.28498625      74.41378313  T       0.00001512       0.00010305      -0.00003882
H       40.75269671     177.51671033      63.83637651  T      -0.00135879       0.00207547       0.00261337
H       42.80592354     179.08614052      64.06057209  T      -0.00587663      -0.00194226       0.00539865
H       43.75542642     177.57694447      63.99716843  T      -0.00349778      -0.00341994       0.00460529
H       44.68097285     178.75717255      61.91002968  T      -0.00514499      -0.01300804      -0.00913369
H       42.78037766     179.29790150      59.80530539  T       0.01012253       0.01146433      -0.01816000
H       44.60559011     180.91447674      60.35190922  T      -0.01768541      -0.00007865      -0.01044388
H       44.86743157     180.17803266      58.75184514  T       0.00018486       0.01803355       0.00404939
H       46.46041994     178.75076394      59.76821502  T       0.00216869      -0.00160321       0.00066756
H       45.05890239     176.89324333      61.04256321  T       0.01445211      -0.04521085       0.00103670
H       44.94804471     175.53082845      58.42758111  T       0.00103751       0.00672488       0.00089408
H       45.97051791     175.06376314      59.75789287  T      -0.00571481      -0.01524901       0.00362789
H       49.24614503     174.43389781      55.84199722  T       0.00126000       0.00031313       0.00000029
H       48.16575137     177.02392646      55.03188209  T      -0.00021859       0.00019137       0.00034415
H       48.55620979     175.67962755      57.75154998  T       0.00084038      -0.00103222      -0.00160443
H       47.04681025     175.73823977      56.85559145  T      -0.00110957       0.00133350       0.00148205
H       49.53610495     178.66247158      54.63485874  T      -0.00098450       0.00090372       0.00116446
H       52.23327978     178.65494178      55.37812656  T      -0.00024479       0.00027719      -0.00176759
H       50.42234267     181.07568247      54.87057972  T      -0.00057006      -0.00034798      -0.00088118
H       51.25755220     180.16361177      53.61495795  T       0.00111694      -0.00001280      -0.00015657
H       52.18057016     181.10238123      54.79703871  T      -0.00038003       0.00054064       0.00072429
H       49.44719541     179.41203456      57.39440260  T       0.00214284      -0.00151303      -0.00400364
H       51.26237934     180.92876299      59.17085455  T       0.00016950      -0.00072145       0.00293431
H       48.18820345     180.75643760      59.23398667  T      -0.00160676       0.00209771       0.00112886
H       49.15471561     181.71178793      60.34765486  T      -0.00441353       0.00492393      -0.00174463
H       47.93357051     181.41581300      56.93440681  T      -0.00050638       0.00069389      -0.00147360
H       50.42912398     183.59210117      59.52262379  T      -0.00026397      -0.00023813       0.00019014
H       48.12578652     183.22414644      55.23373176  T       0.00120072       0.00319273      -0.00093731
H       50.77639782     185.27797825      57.76209504  T      -0.00004783      -0.00014578       0.00085403
H       49.11700940     185.16761144      54.69125340  T       0.00554664       0.00345031      -0.00436798
H       50.81773384     177.73297049      58.76091979  T       0.00034702      -0.00134694       0.00040320
H       51.05682874     177.47214411      61.70864011  T      -0.00305599      -0.00010674       0.00022268
H       50.14808884     175.12658446      61.53163979  T       0.01669594       0.00342693      -0.00165891
H       49.86608702     175.39219851      59.81040748  T       0.00411259       0.00211216      -0.00127595
H       48.22529897     176.18215157      61.91447942  T       0.01060182       0.01100512       0.00649412
H       58.63289228     191.29240440      73.26055377  T      -0.00013516      -0.00014357      -0.00053160
H       56.04275453     190.06436321      74.00994722  T       0.00020522      -0.00019116      -0.00018303
H       55.42379837     192.44573154      74.76894610  T      -0.00001004      -0.00005843      -0.00017935
H       57.05834896     192.94580185      74.43693099  T       0.00007862      -0.00007156      -0.00002688
H       58.93537816     191.81062221      75.70641466  T       0.00007650      -0.00004650       0.00005662
H       54.88316683     191.50613277      76.81910918  T      -0.00001845      -0.00000865       0.00004804
H       59.63008442     191.06424807      77.94163025  T      -0.00002065      -0.00007075       0.00007071
H       55.50153874     190.80901203      79.07737110  T       0.00006588      -0.00004676       0.00006095
H       57.88444541     190.53895711      79.63629377  T      -0.00002637      -0.00006116      -0.00000828
H       54.16874685     190.87884863      72.86050785  T      -0.00012197       0.00117937       0.00054100
H       54.85061577     192.49914217      70.55467623  T      -0.00245937       0.00192639      -0.00161094
H       52.94009609     191.66971826      69.37437038  T      -0.00028104      -0.00028254      -0.00009737
H       53.58437723     190.24711933      70.16106750  T       0.00008351       0.00004455      -0.00000397
H       53.28068493     195.95756671      72.31951891  T      -0.00366223       0.00084587       0.00570383
H       50.85730489     196.10224071      70.43393810  T       0.00031258       0.00032048      -0.00189566
H       51.96357020     197.41419245      70.85491469  T       0.00022695       0.00032503      -0.00179464
H       52.37878791     196.18273445      68.53373310  T      -0.00001880      -0.00008204      -0.00002700
H       53.78126391     196.40558280      69.58744426  T       0.00037105      -0.00067448      -0.00053314
H       53.84693632     194.01332776      69.30670652  T      -0.00009766       0.00074091      -0.00097026
H       52.07314165     193.87775689      69.24709224  T       0.00011584       0.00071249      -0.00102993
H       44.90544654     170.89425837      68.26796668  T       0.00027079      -0.00000366      -0.00033451
H       42.42874598     170.17277337      66.72168512  T       0.00113926      -0.00178721      -0.00144777
H       42.56090775     169.96990820      68.47257756  T      -0.00184404       0.00149275      -0.00112724
H       43.54438863     168.96896349      67.38236520  T      -0.00028250      -0.00054449       0.00253227
H       48.27756557     172.66027577      67.76126596  T      -0.00090979      -0.00318646      -0.00175859
H       49.09668273     172.48839932      69.32060312  T      -0.00124748       0.00319265      -0.00120561
H       48.76798811     171.06004836      68.33148086  T       0.00168321      -0.00026732       0.00350988
H       50.65559494     189.31805591      61.00427642  T       0.00022414       0.00031769       0.00037984
H       52.19002942     190.02917171      58.55267409  T      -0.00121280       0.00095889      -0.00218616
H       50.44622322     190.27072469      58.74429420  T      -0.00075620      -0.00117645      -0.00182503
H       51.11630739     188.62722809      58.63727938  T       0.00064534       0.00034897      -0.00218937
H       58.07218935     178.33090654      68.53143382  T       0.00069362       0.00003848      -0.00031485
H       58.51062079     176.98381180      69.58826273  T       0.00023550      -0.00011317      -0.00062621
H       59.30605943     178.54783266      69.77830547  T       0.00043096      -0.00047021      -0.00022092
H       49.27844726     175.34214995      80.56962299  T      -0.00009830       0.00011772       0.00015602
H       47.07748736     173.57510371      81.47259638  T      -0.00060334       0.00109957       0.00109520
H       48.11839427     174.50075735      82.56206378  T       0.00151134      -0.00065765       0.00033186
H       48.78586908     173.14909554      81.62053081  T      -0.00112069      -0.00097183      -0.00079791
H       45.40747555     175.31534642      73.61206308  T      -0.00004093      -0.00048423       0.00228860
H       43.83576305     174.83723648      72.95657309  T       0.00175607      -0.00078463      -0.00060090
H       43.95729802     175.43298097      74.61444254  T      -0.00168072      -0.00140046      -0.00073964
H       45.52175964     187.80890822      72.33207261  T      -0.00082683       0.00773139      -0.00057711
H       43.96273649     187.86081859      74.86442022  T      -0.00254163       0.00320041      -0.00054667
H       43.76717576     186.65654082      73.58621080  T       0.00074707      -0.00086133       0.00344160
H       43.28096314     188.34451054      73.29967213  T      -0.00144697      -0.00338678      -0.00235332
H       39.77590787     175.66151283      64.81312494  T       0.00145209      -0.00574253      -0.00317826
H       40.44726532     175.77328418      66.44870075  T      -0.00471797       0.00419493      -0.00282787
H       40.80279749     174.36692864      65.44890110  T       0.00117695       0.00070790       0.00655946
H       42.72243110     175.64492320      60.83725629  T      -0.00373342      -0.00072192      -0.00102779
H       42.10066611     172.75489989      60.47211406  T      -0.00008946       0.00019449      -0.00060412
H       40.89595867     174.03712238      60.68817850  T       0.00014244       0.00071155      -0.00008037
H       41.95867710     173.57270261      62.03697741  T       0.00019506      -0.00024435       0.00003550
H       49.46177361     173.43595258      52.33555577  T       0.00179334       0.00036954       0.00028244
H       48.38272051     172.92253915      53.63534767  T      -0.00075721       0.00062018      -0.00170075
H       50.12865908     173.00284415      53.91305299  T      -0.00109820      -0.00054551       0.00130072
H       52.68162423     176.12680578      62.43329801  T      -0.00011060      -0.00014581      -0.00003735
H       54.80275581     175.50523010      60.35542538  T       0.00093410       0.00201102       0.00050696
H       54.46046436     174.36631836      61.66848514  T      -0.00023961      -0.00053624      -0.00212815
H       55.17372794     175.95439761      62.02759921  T      -0.00043137      -0.00142593       0.00165670
H       60.53407270     190.20997367      73.84324551  T      -0.00020006       0.00032566       0.00224022
H       60.36542074     188.59503409      73.14443224  T      -0.00002952       0.00179246      -0.00138791
H       60.37852295     188.79788697      74.89527625  T      -0.00043442      -0.00201521      -0.00084288
H       50.89401811     193.40034876      72.34976366  T       0.00005330       0.00025421      -0.00048719
H       49.11123179     195.09437831      74.05595943  T      -0.00368186      -0.00038604      -0.00226851
H       49.73785113     193.50620246      74.52173384  T       0.00000246       0.00308248       0.00215601
H       48.56022230     193.64170185      73.19446181  T       0.00100343      -0.00357066       0.00180134
H       51.46321654     186.91606716      69.22383013  T      -0.00174355      -0.00015143      -0.00115491
H       54.64909000     189.28061305      68.01219981  T       0.00035194      -0.00018821      -0.00082086
H       53.51846328     189.68500341      65.84557965  T       0.00210646      -0.00154972      -0.00186663
H       50.54683885     186.79959786      65.01137456  T      -0.00032473       0.00078021      -0.00018886
H       47.84160636     186.05423070      65.90945152  T      -0.00168535      -0.00103753      -0.00195924
H       48.10416011     187.22209792      63.71988275  T      -0.00007396       0.00001323       0.00035610
H       49.33880533     186.08451444      63.24364121  T       0.00002572       0.00037026       0.00000948
H       45.77022372     185.86603496      64.48073201  T      -0.00107611       0.00273371      -0.00228521
H       44.08881979     184.45342643      63.35633776  T      -0.00027223       0.00313359      -0.00184911
H       44.66582569     183.02905566      61.46021554  T       0.00649220      -0.00452570      -0.00402264
H       46.99609544     183.05066631      60.59239218  T      -0.00122716       0.00645484      -0.00482772
H       48.69966609     184.48553413      61.71298088  T      -0.00090744       0.00298352      -0.00272522
H       47.47287688     183.84738464      66.49884200  T      -0.00025228      -0.00017724      -0.00047532
H       49.65029866     181.90640949      65.97197370  T      -0.00022120      -0.00173104       0.00050657
H       48.47706544     180.63691534      67.78587742  T       0.00000024       0.00003615       0.00044190
H       47.18267320     181.80375170      67.80934309  T       0.00010854      -0.00034583       0.00076098
H       48.56911451     183.52041518      68.72626640  T       0.00081626       0.00037419      -0.00188560
H       50.97636257     181.67185316      68.35599616  T       0.00015304      -0.00135358      -0.00261103
H       51.00368895     183.18148280      69.25703757  T       0.00125684      -0.00137255       0.00202657
H       50.68191385     183.19482400      67.52618985  T       0.00029268       0.00242087      -0.00016576
H       49.18740779     180.85317879      70.10626683  T       0.00018033       0.00004780      -0.00030639
H       47.72622726     181.80573207      70.32753374  T      -0.00005788       0.00001101      -0.00023443
H       49.28143291     182.43102211      70.87689873  T       0.00002770       0.00012862      -0.00010443
H       55.95878033     179.07270646      61.56490934  T       0.00119080      -0.00476434      -0.00169335
H       58.83750950     174.35749254      74.33313717  T       0.00305242      -0.00577449       0.00102722
H       46.99712804     179.72015299      62.65703433  T      -0.01386974      -0.01078978      -0.00689002
H       48.77328213     182.21248614      63.74335311  T      -0.01051854       0.00995522       0.00049749
H       46.14846863     182.28486021      64.52659394  T       0.01650876       0.00470427       0.00546507
H       44.32051054     180.43171213      62.90650122  T       0.01929197       0.00836533       0.01052051
H       44.83245448     180.74942183      64.34880611  T       0.00314887       0.02665144       0.02822660
H       49.46168098     189.75633171      70.16188386  T       0.00013050      -0.00021860      -0.00014606
H       48.77896048     188.67904888      69.31414097  T       0.00003223       0.00000868      -0.00000668
H       51.07133617     181.50738331      63.72372785  T      -0.01509226      -0.02019676      -0.00295701
H       50.54463349     181.09595170      62.34193219  T       0.01510276      -0.01298455       0.01356072
