53
bortezomib extracted bound-geometry ligand | three-coordinate boronic acid reference | charge 0
N       51.8750000000     188.4900000000      66.2910000000
C       51.2430000000     187.8010000000      67.2540000000
C       51.8790000000     187.5720000000      68.4910000000
N       53.0850000000     188.1320000000      68.7340000000
C       53.6920000000     188.8390000000      67.7940000000
C       53.0730000000     189.0300000000      66.5680000000
C       49.9770000000     187.0890000000      66.9530000000
O       49.2200000000     186.7530000000      67.8520000000
N       49.8090000000     186.6650000000      65.6870000000
C       48.7040000000     185.8480000000      65.2600000000
C       48.4070000000     186.1740000000      63.8110000000
C       47.3620000000     185.2840000000      63.1830000000
C       46.0490000000     185.2710000000      63.6290000000
C       45.0990000000     184.4620000000      62.9800000000
C       45.4150000000     183.6560000000      61.9130000000
C       46.7170000000     183.6700000000      61.4270000000
C       47.6830000000     184.4960000000      62.0630000000
C       49.1020000000     184.3870000000      65.3900000000
O       50.1100000000     183.9990000000      64.8320000000
N       48.3580000000     183.5400000000      66.0800000000
C       48.6080000000     182.1210000000      66.2220000000
C       48.2630000000     181.7030000000      67.6650000000
C       49.0050000000     182.5040000000      68.7210000000
C       50.5000000000     182.6460000000      68.4510000000
C       48.7880000000     181.8670000000      70.0840000000
B       47.7230000000     181.2360000000      65.1690000000
O       48.0920000000     181.5100000000      63.7010000000
O       46.2460000000     181.6250000000      65.2440000000
H       51.4610041255     186.9183609390      69.2245729196
H       54.6522731862     189.2751051083      68.0091919545
H       53.5298832722     189.6624159291      65.8315321587
H       50.5455993649     186.8025318407      65.0106043093
H       47.8408429586     186.0536550609      65.9086789902
H       48.1033081435     187.2219292750      63.7207174374
H       49.3387059836     186.0856496285      63.2434131103
H       45.7695217175     185.8675030736      64.4793452442
H       44.0869272519     184.4619424268      63.3512364811
H       44.6658570161     183.0357802951      61.4506080501
H       46.9951027563     183.0541255271      60.5895974370
H       48.6988157362     184.4877786259      61.7105726775
H       47.4693296106     183.8449006644      66.4934430912
H       49.6503186032     181.9062868068      65.9726006811
H       48.4769013500     180.6369344261      67.7862401970
H       47.1826304390     181.8039980350      67.8092065782
H       48.5695833764     183.5206786106      68.7264100889
H       50.9700095180     181.6726463049      68.3213402210
H       51.0093400405     183.1514080813      69.2727891130
H       50.6817347828     183.2240162444      67.5438619132
H       49.1853522482     180.8523948320      70.1050210001
H       47.7262550396     181.8081067407      70.3282349501
H       49.2833977073     182.4297858806      70.8765067005
H       48.7442417757     182.2396504835      63.7378830583
H       46.0610589827     182.0514413293      64.3848769090
