42
ixazomib extracted bound-geometry ligand | three-coordinate boronic acid reference | charge 0
N       49.5430000000     186.9550000000      65.8390000000
C       53.0010000000     189.7690000000      66.9380000000
C       50.6170000000     188.9090000000      66.8780000000
C       51.1740000000     191.1720000000      66.7890000000
C       52.5280000000     191.0080000000      66.8490000000
O       50.3990000000     184.2480000000      65.6020000000
C       49.2110000000     184.4870000000      65.8830000000
N       48.4000000000     183.5550000000      66.3290000000
C       48.7110000000     182.1580000000      66.5180000000
B       47.8620000000     181.2670000000      65.3820000000
O       48.0930000000     181.5040000000      63.8590000000
O       46.3620000000     181.6000000000      65.5190000000
C       48.2960000000     181.7550000000      67.9550000000
C       48.9490000000     182.5260000000      69.0720000000
C       50.4460000000     182.5790000000      68.8710000000
C       48.7190000000     181.9460000000      70.4440000000
C       48.6320000000     185.8590000000      65.6520000000
C       49.5760000000     187.7960000000      66.8570000000
O       48.7280000000     187.8560000000      67.6830000000
C       52.0290000000     188.7680000000      66.9510000000
CL      52.4740000000     187.1290000000      67.1120000000
CL      50.4280000000     192.7930000000      66.8590000000
C       50.2180000000     190.1620000000      66.8270000000
H       50.2999467115     186.9665595788      65.1444122298
H       54.0506999781     189.5340996554      67.0006852684
H       53.1792503345     191.8673244037      66.8282813864
H       47.4421314770     183.7955241856      66.6000496779
H       49.7685492174     181.9778354621      66.3104124986
H       48.4976168808     180.6868952078      68.0842023498
H       47.2078093949     181.8507431331      68.0331543407
H       48.5519242184     183.5570872560      69.0355818581
H       50.8696676031     181.5787290253      68.8019615293
H       50.9463986470     183.0921050798      69.6938965226
H       50.7048223756     183.1090401722      67.9529044236
H       49.0875861190     180.9213226341      70.4988218324
H       47.6550777984     181.9234213167      70.6840242399
H       49.2244232655     182.5201206286      71.2222658260
H       48.2094627031     185.9093101604      64.6437925750
H       47.7972313021     186.0140740336      66.3441598478
H       49.1686419021     190.4076622437      66.8078312831
H       47.4476903377     182.2090708022      63.6623328455
H       45.7757663328     181.3981692175      64.7680499912
