42

N      49.542999999999999    186.955000000000013     65.838999999999999
C      53.000999999999998    189.769000000000005     66.938000000000002
C      50.616999999999997    188.908999999999992     66.878000000000000
C      51.173999999999999    191.171999999999997     66.789000000000001
C      52.527999999999999    191.008000000000010     66.849000000000004
O      50.399000000000001    184.247999999999990     65.602000000000004
C      49.210999999999999    184.486999999999995     65.882999999999996
N      48.399999999999999    183.555000000000007     66.328999999999994
C      48.710999999999999    182.157999999999987     66.518000000000001
B      47.862000000000002    181.266999999999996     65.382000000000005
O      48.093000000000004    181.503999999999991     63.859000000000002
O      46.362000000000002    181.599999999999994     65.519000000000005
C      48.295999999999999    181.754999999999995     67.954999999999998
C      48.948999999999998    182.526000000000010     69.072000000000003
C      50.445999999999998    182.579000000000008     68.870999999999995
C      48.719000000000001    181.945999999999998     70.444000000000003
C      48.631999999999998    185.859000000000009     65.652000000000001
C      49.576000000000001    187.795999999999992     66.856999999999999
O      48.728000000000002    187.855999999999995     67.683000000000007
C      52.029000000000003    188.768000000000001     66.950999999999993
Cl     52.473999999999997    187.128999999999991     67.111999999999995
Cl     50.427999999999997    192.793000000000006     66.858999999999995
C      50.218000000000004    190.162000000000006     66.826999999999998
H      50.299946711499999    186.966559578800002     65.144412229799997
H      54.050699978099999    189.534099655400013     67.000685268400005
H      53.179250334499997    191.867324403699996     66.828281386399993
H      47.442131476999997    183.795524185599987     66.600049677900003
H      49.768549217400000    181.977835462099989     66.310412498600002
H      48.497616880800003    180.686895207800006     68.084202349799995
H      47.207809394900003    181.850743133099996     68.033154340699994
H      48.551924218400003    183.557087255999988     69.035581858100002
H      50.869667603099998    181.578729025299992     68.801961529300002
H      50.946398647000002    183.092105079800007     69.693896522599999
H      50.704822375600003    183.109040172199997     67.952904423600003
H      49.087586119000001    180.921322634099994     70.498821832399997
H      47.655077798400001    181.923421316700001     70.684024239899998
H      49.224423265500000    182.520120628600012     71.222265825999997
H      48.209462703100002    185.909310160399997     64.643792575000006
H      47.797231302100002    186.014074033599996     66.344159847800000
H      49.168641902099999    190.407662243700003     66.807831283100001
H      47.447690337700003    182.209070802199989     63.662332845500003
H      45.775766332800004    181.398169217499998     64.768049991200002
