      -----------------------------------------------------------      
     |                   =====================                   |     
     |                           x T B                           |     
     |                   =====================                   |     
     |                         S. Grimme                         |     
     |          Mulliken Center for Theoretical Chemistry        |     
     |                    University of Bonn                     |     
      -----------------------------------------------------------      

   * xtb version 6.7.1 (unknown) compiled by 'runner@Mac-1732184002186.local' on 2024-11-21

   xtb is free software: you can redistribute it and/or modify it under
   the terms of the GNU Lesser General Public License as published by
   the Free Software Foundation, either version 3 of the License, or
   (at your option) any later version.
   
   xtb is distributed in the hope that it will be useful,
   but WITHOUT ANY WARRANTY; without even the implied warranty of
   MERCHANTABILITY or FITNESS FOR A PARTICULAR PURPOSE.  See the
   GNU Lesser General Public License for more details.
   
   Cite this work as:
   * C. Bannwarth, E. Caldeweyher, S. Ehlert, A. Hansen, P. Pracht,
     J. Seibert, S. Spicher, S. Grimme, WIREs Comput. Mol. Sci., 2020, 11,
     e01493. DOI: 10.1002/wcms.1493
   
   for GFN2-xTB:
   * C. Bannwarth, S. Ehlert and S. Grimme., J. Chem. Theory Comput., 2019,
     15, 1652-1671. DOI: 10.1021/acs.jctc.8b01176
   for GFN1-xTB:
   * S. Grimme, C. Bannwarth, P. Shushkov, J. Chem. Theory Comput., 2017,
     13, 1989-2009. DOI: 10.1021/acs.jctc.7b00118
   for GFN0-xTB:
   * P. Pracht, E. Caldeweyher, S. Ehlert, S. Grimme, ChemRxiv, 2019, preprint.
     DOI: 10.26434/chemrxiv.8326202.v1
   for GFN-FF:
   * S. Spicher and S. Grimme, Angew. Chem. Int. Ed., 2020, 59, 15665-15673.
     DOI: 10.1002/anie.202004239
   
   for ALPB and GBSA implicit solvation:
   * S. Ehlert, M. Stahn, S. Spicher, S. Grimme, J. Chem. Theory Comput.,
     2021, 17, 4250-4261. DOI: 10.1021/acs.jctc.1c00471
   
   for ddCOSMO and CPCM-X implicit solvation:
   * M. Stahn, S. Ehlert, S. Grimme, J. Phys. Chem. A,
     2023, XX, XXXX-XXXX. DOI: 10.1021/acs.jpca.3c04382
   
   for DFT-D4:
   * E. Caldeweyher, C. Bannwarth and S. Grimme, J. Chem. Phys., 2017,
     147, 034112. DOI: 10.1063/1.4993215
   * E. Caldeweyher, S. Ehlert, A. Hansen, H. Neugebauer, S. Spicher,
     C. Bannwarth and S. Grimme, J. Chem. Phys., 2019, 150, 154122.
     DOI: 10.1063/1.5090222
   * E. Caldeweyher, J.-M. Mewes, S. Ehlert and S. Grimme, Phys. Chem. Chem. Phys.
     2020, 22, 8499-8512. DOI: 10.1039/D0CP00502A
   
   for sTDA-xTB:
   * S. Grimme and C. Bannwarth, J. Chem. Phys., 2016, 145, 054103.
     DOI: 10.1063/1.4959605
   
   in the mass-spec context:
   * V. Asgeirsson, C. Bauer and S. Grimme, Chem. Sci., 2017, 8, 4879.
     DOI: 10.1039/c7sc00601b
   * J. Koopman and S. Grimme, ACS Omega 2019, 4, 12, 15120-15133.
     DOI: 10.1021/acsomega.9b02011
   
   for metadynamics refer to:
   * S. Grimme, J. Chem. Theory Comput., 2019, 155, 2847-2862
     DOI: 10.1021/acs.jctc.9b00143
   
   for SPH calculations refer to:
   * S. Spicher and S. Grimme, J. Chem. Theory Comput., 2021, 17, 1701-1714
     DOI: 10.1021/acs.jctc.0c01306
   
   for ONIOM refer to:
   * C. Plett, A. Katbashev, S. Ehlert, S. Grimme, M. Bursch,
     Phys. Chem. Chem. Phys., 2023, 25, 17860-17868. DOI: 10.1039/D3CP02178E
   
   for DIPRO refer to:
   * J. Kohn, N. Gildemeister, S. Grimme, D. Fazzi, A. Hansen,
     J. Chem. Phys., 2023, just accepted.
   
   for PTB refer to:
   * S. Grimme, M. Mueller, A. Hansen, J. Chem. Phys., 2023, 158, 124111.
     DOI: 10.1063/5.0137838
   
   with help from (in alphabetical order)
   P. Atkinson, C. Bannwarth, F. Bohle, G. Brandenburg, E. Caldeweyher
   M. Checinski, S. Dohm, S. Ehlert, S. Ehrlich, I. Gerasimov, C. Hölzer
   A. Katbashev, J. Kohn, J. Koopman, C. Lavigne, S. Lehtola, F. März, M. Müller,
   F. Musil, H. Neugebauer, J. Pisarek, C. Plett, P. Pracht, F. Pultar,
   J. Seibert, P. Shushkov, S. Spicher, M. Stahn, M. Steiner, T. Strunk,
   J. Stückrath, T. Rose, and J. Unsleber
   
 * started run on 2026/08/28 at 10:32:46.548     
   ID    Z sym.   atoms
    1    7 N      1, 8, 15, 22, 30, 36, 43, 45-47, 52, 59, 64, 71, 79, 80,
                  88, 89, 96, 104, 112, 117, 121, 125, 130, 135, 139, 145,
                  149, 157, 162, 174, 180, 191, 199, 206, 211, 216, 221, 226,
                  231, 236, 241, 248
    2    6 C      2, 3, 5, 7, 9, 10, 12, 14, 16, 17, 19, 21, 23, 24, 26, 27,
                  31, 32, 34, 37, 38, 40-42, 44, 48, 49, 51, 53, 54, 56, 58,
                  60, 61, 63, 65, 66, 68-70, 72, 73, 75-78, 81, 82, 84-87,
                  90, 91, 93-95, 97, 98, 100-103, 105, 106, 108, 109, 111,
                  113, 114, 116, 118, 119, 122, 123, 126, 127, 129, 131, 132,
                  134, 136, 137, 140, 141, 143, 146, 147, 150, 151, 153, 154,
                  158, 159, 161, 163, 164, 166-172, 175, 176, 178, 181, 182,
                  184-190, 192, 193, 195, 196, 200, 201, 203-205, 207-209,
                  212-214, 217-219, 222-224, 227-229, 232-234, 237, 242-245,
                  247, 249, 253-258, 260, 263
    3    8 O      4, 6, 11, 13, 18, 20, 25, 28, 29, 33, 35, 39, 50, 55, 57,
                  62, 67, 74, 83, 92, 99, 107, 115, 120, 124, 128, 133, 138,
                  142, 144, 148, 152, 155, 156, 160, 165, 173, 177, 179, 183,
                  194, 197, 198, 202, 210, 215, 220, 225, 230, 235, 238-240,
                  246, 251, 252, 259
    4   16 S      110
    5    5 B      250
    6   17 CL     261, 262
    7    1 H      264-533

           -------------------------------------------------
          |                Calculation Setup                |
           -------------------------------------------------

          program call               : /opt/homebrew/bin/xtb input.xyz --gfnff --chrg -1 --opt tight --input xtb.inp
          coordinate file            : input.xyz
          omp threads                :                     1


molecular fragmentation (1/2 indicates fragments):
111111111111111111111222222222222222222222222222222222222222222222222222
222222222222222222222222222222222222222222222222222222222222222222222222
222222222222222222222222222222222222222222222222222222222222211222222222
222222222222222222222222111111111111111111111111111111111111111111112222
222222222222222222222222222222222222222222222222222222222222222222222222
222222222222222222222222222222222222222222222222222222222222222222222222
222222222222222222222222222111122222222222222222222222222222222222222222
21111111111111111122111222222
# atoms in fragment 1/2:    91   442
 fragment masses (1/2) :      695.40     3116.48
CMA distance (Bohr)    :   4.954
constraining FC (au)   :  0.0500

          ==================== Thresholds ====================
          CN  :   150.00000
          rep :   500.00000
          disp:  2500.00000
          HB1 :   250.00000
          HB2 :   450.00000

          Pauling EN used:
          Z : 1  EN :  2.20
          Z : 5  EN :  2.04
          Z : 6  EN :  2.55
          Z : 7  EN :  3.04
          Z : 8  EN :  3.44
          Z :16  EN :  2.58
          Z :17  EN :  3.16
          electric field strengths (au): 0.000

           ------------------------------------------------- 
          |           Force Field Initialization            |
           ------------------------------------------------- 

          distances ...
          ----------------------------------------
          generating topology and atomic info file ...
          pair mat ...
          computing topology distances matrix with Floyd-Warshall algo ...
          making topology EEQ charges ...
          #fragments for EEQ constrain: 9
          ----------------------------------------
          generating topology and atomic info file ...
          pair mat ...
          computing topology distances matrix with Floyd-Warshall algo ...
          making topology EEQ charges ...
          rings ...
          # BATM   5342
          # H in HB   189
          doing iterative Hueckel for 44 subsystem(s) ...
WARNING: probably wrong pi occupation for system 9. Second attempt with Nel=Nel-1!
 at,nb,topo%hyb,Npiel:          43 N              3           3           2
 at,nb,topo%hyb,Npiel:          44 C              3           2           1
 at,nb,topo%hyb,Npiel:          45 N              3           3           2
 at,nb,topo%hyb,Npiel:          46 N              3           3           2

          eigenvalues
 #    :           1          2          3          4
 occ. :        2.000      1.988      1.986      0.026
 eps  :        -3.320     -0.920     -0.872      2.334

  atom   neighbors  erfCN metchar sp-hybrid imet pi  qest     coordinates
    1  N       4    3.50   0.00         3    0    0  -0.236   90.442292  338.574671  118.585983
    2  C       4    3.49   0.00         3    0    0   0.028   90.217415  336.718960  120.617439
    3  C       3    2.80   0.00         2    0    1   0.161   88.624376  334.506090  119.918240
    4  O       1    0.98   0.00         2    0    1  -0.399   86.783783  334.795219  118.565197
    5  C       4    3.49   0.00         3    0    0   0.085   89.034446  338.075783  122.888890
    6  O       2    1.91   0.00         3    0    0  -0.354   90.816458  339.835118  123.865878
    7  C       4    3.49   0.00         3    0    0  -0.056   88.359814  336.327786  125.103649
    8  N       3    2.80   0.00        -3    0    1  -0.182   89.378377  332.255427  120.802632
    9  C       4    3.50   0.00         3    0    0   0.034   87.785337  330.044447  120.704366
   10  C       3    2.80   0.00         2    0    1   0.165   87.808014  328.829353  123.332976
   11  O       1    0.98   0.00         2    0    1  -0.397   89.784668  328.322907  124.391222
   12  C       4    3.48   0.00         3    0    0   0.098   88.546897  328.143383  118.621888
   13  O       2    1.91   0.00         3    0    0  -0.439   88.879489  329.432176  116.259731
   14  C       4    3.49   0.00         3    0    0  -0.060   86.436073  326.144052  118.368665
   15  N       3    2.80   0.00        -3    0    1  -0.184   85.549791  328.596917  124.463032
   16  C       4    3.50   0.00         3    0    0   0.034   85.236097  327.226865  126.794954
   17  C       3    2.81   0.00         2    0    1   0.160   83.255664  325.233204  126.347089
   18  O       1    0.98   0.00         2    0    1  -0.400   81.530344  325.656503  124.786175
   19  C       4    3.49   0.00         3    0    0   0.095   84.444302  328.901163  129.045618
   20  O       2    1.91   0.00         3    0    0  -0.437   82.125608  330.110588  128.537281
   21  C       4    3.49   0.00         3    0    0  -0.057   86.409617  330.879706  129.529387
   22  N       3    2.80   0.00        -3    0    1  -0.173   95.270543  327.381823  126.016387
   23  C       4    3.50   0.00         3    0    0   0.042   97.596795  328.287002  124.892000
   24  C       3    2.81   0.00         2    0    1   0.172   98.689057  330.310899  126.674011
   25  O       1    0.98   0.00         2    0    1  -0.366   97.723407  330.686954  128.782946
   26  C       4    3.49   0.00         3    0    0  -0.027   97.216960  329.226196  122.204809
   27  C       3    2.78   0.00         2    0    1   0.261   96.094463  331.970078  122.114102
   28  O       1    0.98   0.00         2    0    1  -0.357   94.295444  332.404715  123.469036
   29  O       1    0.98   0.00         2    0    1  -0.357   97.071452  333.608471  120.806412
   30  N       3    2.81   0.00        -3    0    1  -0.169  100.718623  331.563787  125.833083
   31  C       4    3.50   0.00         3    0    0   0.032  102.007416  333.308004  127.414784
   32  C       3    2.80   0.00         2    0    1   0.171  102.838896  335.774097  126.188352
   33  O       1    0.98   0.00         2    0    1  -0.371  104.490516  337.110133  127.229591
   34  C       4    3.50   0.00         3    0    0   0.071  104.207057  331.926614  128.554289
   35  O       2    1.92   0.00         3    0    0  -0.415  106.021194  331.312453  126.774167
   36  N       3    2.80   0.00        -3    0    1  -0.182  101.551992  336.503531  124.103984
   37  C       4    3.50   0.00         3    0    0   0.030  102.292765  338.731518  122.681020
   38  C       3    2.81   0.00         2    0    1   0.166  100.726182  341.002969  123.503051
   39  O       1    0.99   0.00         2    0    1  -0.370   98.494415  340.738407  123.816745
   40  C       4    3.49   0.00         3    0    0  -0.037  101.814664  338.287432  119.874777
   41  C       4    3.49   0.00         3    0    0  -0.036  102.096233  340.698723  118.219377
   42  C       5    3.96   0.00         3    0    0  -0.039  102.253081  340.035429  115.479274
   43  N       3    2.80   0.00         3    0    1  -0.179  104.515083  338.595458  114.876451
   44  C       3    2.80   0.00         2    0    1   0.137  105.136803  337.786655  112.553978
   45  N       3    2.81   0.00         3    0    1  -0.289  103.738405  338.298771  110.577324
   46  N       3    2.81   0.00         3    0    1  -0.289  107.328885  336.569671  112.189261
   47  N       3    2.80   0.00        -3    0    1  -0.177  101.912930  343.134580  123.782730
   48  C       4    3.50   0.00         3    0    0   0.032  100.658152  345.547760  123.814856
   49  C       3    2.80   0.00         2    0    1   0.166  101.461285  347.199381  121.592538
   50  O       1    0.98   0.00         2    0    1  -0.370  103.681714  347.293867  120.919795
   51  C       4    3.50   0.00         3    0    0  -0.062  101.304438  346.932929  126.245043
   52  N       3    2.80   0.00        -3    0    1  -0.174   99.707620  348.767854  120.728933
   53  C       4    3.50   0.00         3    0    0   0.027  100.072337  350.453489  118.667242
   54  C       3    2.80   0.00         2    0    1   0.168   99.099128  353.087767  119.183137
   55  O       1    0.98   0.00         2    0    1  -0.370   97.171607  353.456264  120.356657
   56  C       4    3.49   0.00         3    0    0   0.095   98.932832  349.416030  116.165244
   57  O       2    1.91   0.00         3    0    0  -0.421   96.434614  348.567543  116.592322
   58  C       4    3.49   0.00         3    0    0  -0.063  100.399259  347.106784  115.239279
   59  N       3    2.81   0.00        -3    0    1  -0.179  100.431385  354.941589  118.143788
   60  C       4    3.49   0.00         3    0    0   0.030   99.703840  357.628779  118.124890
   61  C       3    2.81   0.00         2    0    1   0.164   99.546993  358.225933  115.326206
   62  O       1    0.98   0.00         2    0    1  -0.373  101.465065  358.651121  114.122450
   63  C       4    3.49   0.00         3    0    0  -0.059  101.748524  359.212370  119.372110
   64  N       3    2.80   0.00        -3    0    1  -0.194  105.941826  337.837678  132.481140
   65  C       4    3.50   0.00         3    0    0   0.033  103.970842  338.621914  134.153547
   66  C       3    2.81   0.00         2    0    1   0.160  102.827557  336.246528  135.327067
   67  O       1    0.98   0.00         2    0    1  -0.393  102.273868  334.453178  133.932449
   68  C       4    3.49   0.00         3    0    0  -0.012  101.818444  339.993855  132.723025
   69  C       4    3.50   0.00         3    0    0  -0.058   99.792657  340.853681  134.533382
   70  C       4    3.50   0.00         3    0    0  -0.058  102.848344  342.255857  131.334076
   71  N       3    2.80   0.00        -3    0    1  -0.191  102.319221  336.316448  137.800719
   72  C       4    3.50   0.00         3    0    0   0.036  100.847124  334.339795  139.032820
   73  C       3    2.80   0.00         2    0    1   0.160   98.025763  335.025765  138.885422
   74  O       1    0.99   0.00         2    0    1  -0.391   97.237747  336.666047  140.181774
   75  C       4    3.49   0.00         3    0    0  -0.036  101.589787  334.001534  141.765364
   76  C       4    3.49   0.00         3    0    0  -0.034  104.339338  333.228636  142.079059
   77  C       4    3.49   0.00         3    0    0  -0.038  104.911925  330.643490  140.846957
   78  C       4    3.49   0.00         3    0    0  -0.004  107.410143  329.409499  141.737018
   79  N       4    3.49   0.00         3    0    0  -0.252  109.409473  330.033109  139.868079
   80  N       3    2.80   0.00        -3    0    1  -0.189   96.629256  333.772877  137.275375
   81  C       4    3.50   0.00         3    0    0   0.035   93.949624  334.294441  136.876643
   82  C       3    2.80   0.00         2    0    1   0.161   92.165723  332.684395  138.458343
   83  O       1    0.98   0.00         2    0    1  -0.393   89.814903  333.120921  138.450785
   84  C       4    3.50   0.00         3    0    0  -0.034   93.297668  334.065784  134.076069
   85  C       4    3.49   0.00         3    0    0  -0.034   94.828347  335.715515  132.422558
   86  C       4    3.49   0.00         3    0    0  -0.037   93.968521  335.734412  129.722140
   87  C       4    3.49   0.00         3    0    0   0.016   95.661716  337.406820  128.108313
   88  N       3    2.78   0.00         3    0    0  -0.304   95.064562  337.285878  125.360652
   89  N       3    2.80   0.00        -3    0    1  -0.187   93.191844  330.902383  139.860520
   90  C       4    3.50   0.00         3    0    0   0.030   91.804785  329.475640  141.786151
   91  C       3    2.80   0.00         2    0    1   0.160   92.358475  330.446959  144.395863
   92  O       1    0.99   0.00         2    0    1  -0.394   94.444732  330.433731  145.198997
   93  C       4    3.49   0.00         3    0    0  -0.010   92.337688  326.661837  141.608517
   94  C       4    3.50   0.00         3    0    0  -0.057   90.720082  325.255881  143.505802
   95  C       4    3.49   0.00         3    0    0  -0.057   91.723527  325.699967  138.957231
   96  N       3    2.80   0.00        -3    0    1  -0.189   90.485756  331.520323  145.658200
   97  C       4    3.50   0.00         3    0    0   0.029   90.848583  332.574790  148.224448
   98  C       3    2.81   0.00         2    0    1   0.158   89.950964  330.643490  150.208660
   99  O       1    0.98   0.00         2    0    1  -0.397   87.879824  329.568236  149.968665
  100  C       4    3.50   0.00         3    0    0  -0.012   89.251765  335.027655  148.456884
  101  C       4    3.50   0.00         3    0    0  -0.037   90.568904  336.940058  146.805264
  102  C       4    3.49   0.00         3    0    0  -0.059   89.136492  336.116137  151.130847
  103  C       4    3.50   0.00         3    0    0  -0.059   88.652722  338.756085  145.883077
  104  N       3    2.80   0.00        -3    0    1  -0.188   85.168067  335.420718  136.768928
  105  C       4    3.49   0.00         3    0    0   0.032   85.202082  338.041768  135.822175
  106  C       3    2.80   0.00         2    0    1   0.164   85.357039  338.113578  132.955461
  107  O       1    0.98   0.00         2    0    1  -0.377   87.108815  337.042103  131.787610
  108  C       4    3.50   0.00         3    0    0  -0.037   87.558570  339.464732  136.903099
  109  C       4    3.49   0.00         3    0    0  -0.025   87.670064  339.419378  139.737688
  110  S       2    2.00   0.00         3    0    0  -0.047   89.561680  341.781536  141.221123
  111  C       4    3.49   0.00         3    0    0  -0.049   92.755317  340.987851  140.272481
  112  N       3    2.81   0.00        -3    0    1  -0.185   83.733765  339.627248  131.832964
  113  C       4    3.50   0.00         3    0    0   0.036   83.864156  340.322668  129.206244
  114  C       3    2.80   0.00         2    0    1   0.164   82.586701  342.928600  128.968139
  115  O       1    0.98   0.00         2    0    1  -0.376   80.806579  343.442605  130.321183
  116  C       4    3.50   0.00         3    0    0  -0.062   82.426074  338.423493  127.664228
  117  N       3    2.80   0.00        -3    0    1  -0.174   83.550461  344.591559  127.350533
  118  C       4    3.50   0.00         3    0    0   0.008   82.550796  347.148358  126.904558
  119  C       3    2.81   0.00         2    0    1   0.168   84.546347  348.973834  127.639661
  120  O       1    0.98   0.00         2    0    1  -0.375   86.751657  348.518410  127.065185
  121  N       3    2.81   0.00        -3    0    1  -0.175   83.824471  350.863560  129.089081
  122  C       4    3.50   0.00         3    0    0   0.008   85.447746  352.734389  130.035834
  123  C       3    2.80   0.00         2    0    1   0.169   86.991652  351.653465  132.182563
  124  O       1    0.98   0.00         2    0    1  -0.376   85.999546  350.691595  134.017487
  125  N       3    2.80   0.00        -3    0    1  -0.180   89.491760  351.880232  131.995480
  126  C       4    3.49   0.00         3    0    0   0.032   91.173616  350.848442  133.930560
  127  C       3    2.80   0.00         2    0    1   0.164   90.712523  352.067315  136.519484
  128  O       1    0.98   0.00         2    0    1  -0.377   90.506543  350.738838  138.439446
  129  C       4    3.49   0.00         3    0    0  -0.059   94.004426  351.243395  133.163331
  130  N       3    2.80   0.00        -3    0    1  -0.181   90.701185  354.571202  136.657434
  131  C       4    3.50   0.00         3    0    0   0.031   90.310011  355.816532  139.091402
  132  C       3    2.80   0.00         2    0    1   0.162   87.632270  355.213709  140.174215
  133  O       1    0.98   0.00         2    0    1  -0.379   87.403613  354.680807  142.394643
  134  C       4    3.49   0.00         3    0    0  -0.059   90.601029  358.624665  138.817391
  135  N       3    2.79   0.00        -3    0    1  -0.176   78.756226  334.974743  121.303410
  136  C       4    3.49   0.00         3    0    0   0.009   80.946419  336.501641  120.311303
  137  C       3    2.80   0.00         2    0    1   0.170   80.870830  336.475185  117.438920
  138  O       1    0.98   0.00         2    0    1  -0.365   79.332592  335.108913  116.250282
  139  N       3    2.81   0.00        -3    0    1  -0.170   82.581032  337.883031  116.320202
  140  C       4    3.50   0.00         3    0    0   0.032   82.726541  338.185387  113.634901
  141  C       3    2.80   0.00         2    0    1   0.169   83.282120  335.749530  112.251622
  142  O       1    0.98   0.00         2    0    1  -0.364   82.556465  335.469851  110.046311
  143  C       4    3.50   0.00         3    0    0   0.070   84.665400  340.099680  113.058535
  144  O       2    1.91   0.00         3    0    0  -0.413   87.089918  339.188832  113.933478
  145  N       3    2.79   0.00        -3    0    1  -0.167   84.495324  333.952401  113.534746
  146  C       4    3.50   0.00         3    0    0   0.004   84.958307  331.448514  112.465161
  147  C       3    2.80   0.00         2    0    1   0.168   83.091258  329.390602  113.060424
  148  O       1    0.98   0.00         2    0    1  -0.368   83.416291  327.234424  112.208158
  149  N       3    2.80   0.00        -3    0    1  -0.172   92.753427  331.049781  104.252411
  150  C       4    3.50   0.00         3    0    0   0.040   92.167612  333.472410  105.371129
  151  C       3    2.80   0.00         2    0    1   0.172   94.548667  334.978522  105.936157
  152  O       1    0.98   0.00         2    0    1  -0.362   95.956513  334.319008  107.621793
  153  C       4    3.49   0.00         3    0    0  -0.029   90.655831  333.124701  107.814545
  154  C       3    2.79   0.00         2    0    1   0.263   90.041670  335.647485  109.116566
  155  O       1    0.98   0.00         2    0    1  -0.351   90.034111  337.631698  107.801317
  156  O       1    0.98   0.00         2    0    1  -0.351   89.712858  335.615360  111.488172
  157  N       3    2.80   0.00        -3    0    1  -0.176   94.835906  337.121471  104.649253
  158  C       4    3.49   0.00         3    0    0   0.034   97.027988  338.774982  105.038537
  159  C       3    2.80   0.00         2    0    1   0.167   97.266093  339.687720  107.803206
  160  O       1    0.98   0.00         2    0    1  -0.367   99.382587  340.231961  108.723503
  161  C       4    3.49   0.00         3    0    0  -0.064   96.948619  341.038874  103.292430
  162  N       3    2.79   0.00        -3    0    1  -0.177   95.125034  339.812441  109.099558
  163  C       4    3.50   0.00         3    0    0   0.026   95.130703  340.779981  111.662027
  164  C       3    2.80   0.00         2    0    1   0.167   95.327234  338.731518  113.665137
  165  O       1    0.98   0.00         2    0    1  -0.365   95.077791  339.336230  115.929029
  166  C       4    3.50   0.00         3    0    0  -0.034   92.834686  342.635692  112.111782
  167  C       3    2.82   0.00         2    0    1   0.007   92.995312  344.635023  110.244732
  168  C       3    2.84   0.00         2    0    1  -0.015   91.710299  344.478175  107.969502
  169  C       3    2.85   0.00         2    0    1  -0.015   94.399379  346.704273  110.664252
  170  C       3    2.83   0.00         2    0    1  -0.016   91.944625  346.384909  106.140247
  171  C       3    2.84   0.00         2    0    1  -0.016   94.756537  348.514630  108.819879
  172  C       3    2.83   0.00         2    0    1   0.110   93.482862  348.365342  106.586223
  173  O       2    1.92   0.00         3    0    1  -0.418   93.862697  350.217273  104.855233
  174  N       3    2.80   0.00        -3    0    1  -0.171   95.890373  336.388258  112.931923
  175  C       4    3.50   0.00         3    0    0   0.027   96.413827  334.430501  114.755509
  176  C       3    2.79   0.00         2    0    1   0.169   99.027318  333.272099  114.167804
  177  O       1    0.98   0.00         2    0    1  -0.365   99.839900  333.016986  111.843441
  178  C       4    3.48   0.00         3    0    0   0.072   94.327569  332.391487  114.863223
  179  O       2    1.91   0.00         3    0    0  -0.413   91.827462  333.404380  115.320537
  180  N       3    2.80   0.00        -3    0    1  -0.183  109.640020  360.083534  139.074394
  181  C       4    3.49   0.00         3    0    0   0.032  106.973616  360.856432  139.286043
  182  C       3    2.81   0.00         2    0    1   0.166  105.955054  361.852317  136.816171
  183  O       1    0.99   0.00         2    0    1  -0.370  107.255186  363.061742  135.421554
  184  C       4    3.50   0.00         3    0    0  -0.035  106.695827  362.999381  141.291043
  185  C       3    2.82   0.00         2    0    1   0.004  107.459276  362.268057  143.866740
  186  C       3    2.83   0.00         2    0    1  -0.023  109.972612  362.050738  144.480901
  187  C       3    2.84   0.00         2    0    1  -0.023  105.682934  361.727595  145.663869
  188  C       3    2.82   0.00         2    0    1  -0.020  110.713384  361.262723  146.827940
  189  C       3    2.82   0.00         2    0    1  -0.020  106.321661  360.990602  148.054373
  190  C       3    2.83   0.00         2    0    1  -0.019  108.836886  360.695805  148.634519
  191  N       3    2.80   0.00        -3    0    1  -0.172  103.526756  361.442247  136.330512
  192  C       4    3.49   0.00         3    0    0   0.040  102.168043  362.988043  134.561728
  193  C       3    2.80   0.00         2    0    1   0.159  100.898147  365.287839  135.926110
  194  O       1    0.98   0.00         2    0    1  -0.368  100.951059  365.539173  138.220238
  195  C       4    3.49   0.00         3    0    0  -0.028  100.370913  361.347760  132.947902
  196  C       3    2.79   0.00         2    0    1   0.263   97.817893  360.875329  134.161106
  197  O       1    0.98   0.00         2    0    1  -0.358   97.179166  361.782397  136.213349
  198  O       1    0.98   0.00         2    0    1  -0.358   96.275877  359.541182  132.978138
  199  N       3    2.81   0.00        -3    0    1  -0.101   99.875805  367.100087  134.480470
  200  C       4    3.52   0.00         3    0    0   0.021   99.044326  369.447127  135.727689
  201  C       3    2.81   0.00         2    0    1   0.164   96.901376  369.161778  137.647651
  202  O       1    0.98   0.00         2    0    1  -0.376   96.583902  370.794501  139.244469
  203  C       4    3.52   0.00         3    0    0  -0.034   98.091904  371.026938  133.486474
  204  C       4    3.51   0.00         3    0    0  -0.036   99.773760  370.242701  131.366201
  205  C       4    3.51   0.00         3    0    0  -0.005   99.985409  367.392994  131.719580
  206  N       3    2.79   0.00        -3    0    1  -0.196   83.488100  323.129939  127.652889
  207  C       4    3.49   0.00         3    0    0  -0.011   81.483101  321.177852  127.626433
  208  C       4    3.49   0.00         3    0    0  -0.056   92.687287  325.242653  129.070184
  209  C       3    2.79   0.00         2    0    1   0.170   95.268653  325.550678  127.771942
  210  O       1    0.98   0.00         2    0    1  -0.372   97.147041  324.150391  128.327522
  211  N       3    2.79   0.00        -3    0    1  -0.183   97.277432  358.310970  114.267959
  212  C       4    3.49   0.00         3    0    0  -0.019   96.918384  358.356324  111.524077
  213  C       4    3.49   0.00         3    0    0  -0.054  110.286306  336.486523  131.422893
  214  C       3    2.80   0.00         2    0    1   0.160  108.262410  337.287767  133.316399
  215  O       1    0.99   0.00         2    0    1  -0.397  108.742400  337.263201  135.516040
  216  N       3    2.80   0.00        -3    0    1  -0.196   91.407942  330.446959  152.183424
  217  C       4    3.50   0.00         3    0    0  -0.015   90.859922  328.776441  154.209211
  218  C       4    3.49   0.00         3    0    0  -0.058   83.798015  331.739531  139.091402
  219  C       3    2.79   0.00         2    0    1   0.166   83.344481  334.432391  138.161656
  220  O       1    0.98   0.00         2    0    1  -0.379   81.348930  335.524653  138.581176
  221  N       3    2.79   0.00        -3    0    1  -0.185   85.685852  355.245835  138.569837
  222  C       4    3.50   0.00         3    0    0  -0.021   83.168736  354.701594  139.439111
  223  C       4    3.49   0.00         3    0    0  -0.058   76.809808  331.543000  123.644780
  224  C       3    2.79   0.00         2    0    1   0.169   79.160627  332.826124  122.628108
  225  O       1    0.98   0.00         2    0    1  -0.368   81.343261  331.936063  123.102429
  226  N       3    2.79   0.00        -3    0    1  -0.178   81.022008  330.069014  114.379453
  227  C       4    3.50   0.00         3    0    0  -0.022   79.179525  328.264325  115.192035
  228  C       4    3.49   0.00         3    0    0  -0.060   93.144601  327.827798  100.928383
  229  C       3    2.79   0.00         2    0    1   0.171   92.876260  330.609475  101.771200
  230  O       1    0.98   0.00         2    0    1  -0.366   92.683508  332.245978  100.215956
  231  N       3    2.79   0.00        -3    0    1  -0.175  100.348237  332.595577  116.218157
  232  C       4    3.49   0.00         3    0    0  -0.024  102.940941  331.491977  116.010287
  233  C       4    3.49   0.00         3    0    0  -0.063  113.478054  357.617441  139.762254
  234  C       3    2.79   0.00         2    0    1   0.167  110.530081  357.876333  139.752806
  235  O       1    0.98   0.00         2    0    1  -0.376  109.237508  356.082983  140.263032
  236  N       3    2.79   0.00        -3    0    1  -0.183   95.455736  367.152999  137.447340
  237  C       4    3.50   0.00         3    0    0  -0.025   93.375147  366.827966  139.235021
  238  O       2    1.92   0.00         3    0    0  -0.571   84.225093  342.346564  120.020286
  239  O       2    1.92   0.00         3    0    0  -0.571   91.846359  357.855546  132.243034
  240  O       2    1.92   0.00         3    0    0  -0.569   95.871475  343.705277  118.848655
  241  N       3    2.80   0.00        -3    0    1  -0.181   93.622701  353.293748  124.417678
  242  C       3    2.87   0.00         2    0    1  -0.019  100.157374  358.611437  126.494487
  243  C       3    2.91   0.00         2    0    1   0.011   95.652267  356.986272  126.381104
  244  C       3    2.86   0.00         2    0    1   0.032   96.704845  361.262723  126.212918
  245  C       3    2.86   0.00         2    0    1  -0.024   99.263534  360.952808  126.326302
  246  O       1    0.98   0.00         2    0    1  -0.399   95.240307  348.178259  123.969813
  247  C       3    2.79   0.00         2    0    1   0.162   92.995312  348.629904  124.500826
  248  N       3    2.80   0.00        -3    0    1  -0.185   91.462744  346.868679  125.343644
  249  C       4    3.47   0.00         3    0    0   0.012   92.050449  344.228731  125.700802
  250  B       4    3.43   0.03         3    0    0   0.367   90.446072  342.544985  123.554073
  251  O       2    1.88   0.00         3    0    0  -0.449   90.882599  342.992851  120.676021
  252  O       2    1.89   0.00         3    0    0  -0.449   87.611483  343.174264  123.812966
  253  C       4    3.49   0.00         3    0    0  -0.032   91.266213  343.467172  128.416339
  254  C       4    3.49   0.00         3    0    0  -0.014   92.500204  344.924151  130.527163
  255  C       4    3.50   0.00         3    0    0  -0.061   95.329124  345.024306  130.147328
  256  C       4    3.50   0.00         3    0    0  -0.061   92.065567  343.828109  133.119867
  257  C       4    3.50   0.00         3    0    0   0.013   91.901161  351.222608  124.064300
  258  C       3    2.80   0.00         2    0    1   0.164   93.685062  354.883007  126.341420
  259  O       1    0.99   0.00         2    0    1  -0.398   92.082575  354.996391  127.902333
  260  C       3    2.89   0.00         2    0    1   0.031   98.320561  356.719821  126.519054
  261  CL      1    1.13   0.00         0    0    1  -0.143   99.161489  353.622560  126.823300
  262  CL      1    1.06   0.00         0    0    1  -0.158   95.295109  364.325969  126.345199
  263  C       3    2.91   0.00         2    0    1  -0.018   94.898267  359.354099  126.284728
  264  H       1    0.98   0.00         0    0    0   0.099   91.224639  337.739412  117.036408
  265  H       1    0.98   0.00         0    0    0   0.099   91.564790  340.029760  119.166129
  266  H       1    0.98   0.00         0    0    0   0.048   92.058008  335.989526  121.031289
  267  H       1    0.98   0.00         0    0    0   0.047   87.333693  338.920491  122.193471
  268  H       1    0.98   0.00         0    0    0   0.049   90.043560  335.467961  125.821745
  269  H       1    0.98   0.00         0    0    0   0.049   87.089918  334.889705  124.464921
  270  H       1    0.98   0.00         0    0    0   0.049   87.477312  337.406820  126.568187
  271  H       1    0.98   0.00         0    0    0   0.122   91.077240  332.106138  121.545295
  272  H       1    0.98   0.00         0    0    0   0.058   85.912619  330.615144  120.197920
  273  H       1    0.98   0.00         0    0    0   0.041   90.291114  327.249542  119.118886
  274  H       1    0.97   0.01         0    0    0   0.228   87.311016  330.252317  115.785409
  275  H       1    0.98   0.00         0    0    0   0.049   84.701304  327.054900  117.871667
  276  H       1    0.98   0.00         0    0    0   0.049   86.209306  325.176513  120.129890
  277  H       1    0.98   0.00         0    0    0   0.049   86.934961  324.815575  116.928694
  278  H       1    0.98   0.00         0    0    0   0.122   84.060687  329.386822  123.675016
  279  H       1    0.98   0.00         0    0    0   0.055   87.025667  326.435070  127.303290
  280  H       1    0.98   0.00         0    0    0   0.042   84.247770  327.714415  130.670782
  281  H       1    0.97   0.01         0    0    0   0.225   82.307021  331.185842  127.063295
  282  H       1    0.98   0.00         0    0    0   0.047   86.594810  332.058895  127.896664
  283  H       1    0.98   0.00         0    0    0   0.047   88.182180  329.987755  129.922451
  284  H       1    0.98   0.00         0    0    0   0.047   85.855927  332.005983  131.114868
  285  H       1    0.98   0.00         0    0    0   0.143   93.652937  328.128265  125.479704
  286  H       1    0.98   0.00         0    0    0   0.080   98.923383  326.773331  124.701137
  287  H       1    0.98   0.00         0    0    0   0.090   99.002752  329.224306  121.258056
  288  H       1    0.98   0.00         0    0    0   0.090   95.897932  327.990315  121.299630
  289  H       1    0.98   0.00         0    0    0   0.143  101.325225  331.272769  124.098315
  290  H       1    0.98   0.00         0    0    0   0.078  100.682718  333.941062  128.805622
  291  H       1    0.98   0.00         0    0    0   0.073  105.051765  333.102024  129.965914
  292  H       1    0.98   0.00         0    0    0   0.073  103.511638  330.203184  129.349864
  293  H       1    0.97   0.01         0    0    0   0.248  106.684488  332.846911  126.022056
  294  H       1    0.98   0.00         0    0    0   0.141  100.085565  335.505756  123.540845
  295  H       1    0.98   0.00         0    0    0   0.072  104.254301  339.084897  123.021171
  296  H       1    0.98   0.00         0    0    0   0.069  103.135583  336.906043  119.215262
  297  H       1    0.98   0.00         0    0    0   0.069   99.894702  337.677051  119.697142
  298  H       1    0.98   0.00         0    0    0   0.065  100.495635  341.896809  118.517953
  299  H       1    0.98   0.00         0    0    0   0.065  103.800766  341.647366  118.750390
  300  H       1    0.98   0.00         0    0    0   0.066  100.631696  338.933719  114.984166
  301  H       1    0.98   0.00         0    0    0   0.066  102.324890  341.762639  114.430476
  302  H       1    0.98   0.00         0    0    0   0.156  104.241072  337.680830  108.897358
  303  H       1    0.98   0.00         0    0    0   0.156  102.183161  339.302215  110.771966
  304  H       1    0.98   0.00         0    0    0   0.156  107.789978  335.974408  110.488507
  305  H       1    0.98   0.00         0    0    0   0.156  108.477838  336.271095  113.621673
  306  H       1    0.98   0.00         0    0    0   0.139  103.762972  343.096785  123.983041
  307  H       1    0.98   0.00         0    0    0   0.073   98.670160  345.201940  123.682575
  308  H       1    0.98   0.00         0    0    0   0.076  103.298099  347.254183  126.328191
  309  H       1    0.98   0.00         0    0    0   0.076  100.735631  345.814212  127.830524
  310  H       1    0.98   0.00         0    0    0   0.076  100.333119  348.705493  126.288507
  311  H       1    0.98   0.00         0    0    0   0.141   98.046550  348.765964  121.567971
  312  H       1    0.98   0.00         0    0    0   0.079  102.077336  350.587660  118.444254
  313  H       1    0.98   0.00         0    0    0   0.066   99.010311  350.914582  114.810311
  314  H       1    1.00   0.03         0    0    0   0.250   96.451621  347.214499  117.828203
  315  H       1    0.98   0.00         0    0    0   0.074  100.291545  345.640357  116.626338
  316  H       1    0.98   0.00         0    0    0   0.074  102.334339  347.611341  114.940702
  317  H       1    0.98   0.00         0    0    0   0.074   99.598015  346.451049  113.502620
  318  H       1    0.98   0.00         0    0    0   0.139  102.035762  354.484275  117.319867
  319  H       1    0.98   0.00         0    0    0   0.074   97.987969  358.012394  119.124555
  320  H       1    0.98   0.00         0    0    0   0.074  103.511638  358.894896  118.434805
  321  H       1    0.98   0.00         0    0    0   0.074  101.914820  358.687026  121.318527
  322  H       1    0.98   0.00         0    0    0   0.074  101.259085  361.170126  119.241718
  323  H       1    0.98   0.00         0    0    0   0.123  105.580888  337.697838  130.661333
  324  H       1    0.98   0.00         0    0    0   0.052  104.756968  339.882361  135.525488
  325  H       1    0.98   0.00         0    0    0   0.046  101.015310  338.691834  131.402106
  326  H       1    0.98   0.00         0    0    0   0.047  100.584452  342.157592  135.859970
  327  H       1    0.98   0.00         0    0    0   0.047   99.048105  339.254972  135.521709
  328  H       1    0.98   0.00         0    0    0   0.047   98.307332  341.758859  133.501592
  329  H       1    0.98   0.00         0    0    0   0.047  103.649588  343.554099  132.660664
  330  H       1    0.98   0.00         0    0    0   0.047  101.351681  343.162926  130.321183
  331  H       1    0.98   0.00         0    0    0   0.047  104.275088  341.654924  130.033944
  332  H       1    0.98   0.00         0    0    0   0.125  102.956059  337.739412  138.817391
  333  H       1    0.98   0.00         0    0    0   0.053  101.213731  332.599357  138.072839
  334  H       1    0.98   0.00         0    0    0   0.051  100.418157  332.569121  142.581726
  335  H       1    0.98   0.00         0    0    0   0.051  101.346012  335.783545  142.689440
  336  H       1    0.98   0.00         0    0    0   0.044  105.510968  334.632702  141.217344
  337  H       1    0.98   0.00         0    0    0   0.044  104.713504  333.066119  144.059492
  338  H       1    0.98   0.00         0    0    0   0.041  103.392585  329.383043  141.285374
  339  H       1    0.98   0.00         0    0    0   0.041  105.108457  330.979862  138.862745
  340  H       1    0.98   0.00         0    0    0   0.037  107.922259  330.133264  143.554935
  341  H       1    0.98   0.00         0    0    0   0.037  107.187156  327.404500  141.880637
  342  H       1    0.98   0.00         0    0    0   0.097  109.604115  331.947401  139.749026
  343  H       1    0.98   0.00         0    0    0   0.097  108.918145  329.328241  138.142759
  344  H       1    0.98   0.00         0    0    0   0.125   97.422941  332.412274  136.285158
  345  H       1    0.98   0.00         0    0    0   0.054   93.662386  336.193616  137.511591
  346  H       1    0.98   0.00         0    0    0   0.050   93.590576  332.147712  133.509151
  347  H       1    0.98   0.00         0    0    0   0.050   91.372038  334.649710  133.870088
  348  H       1    0.98   0.00         0    0    0   0.045   94.730081  337.605241  133.136875
  349  H       1    0.98   0.00         0    0    0   0.045   96.712404  334.982301  132.437676
  350  H       1    0.98   0.00         0    0    0   0.043   94.021434  333.846576  128.998374
  351  H       1    0.98   0.00         0    0    0   0.043   92.086354  336.469516  129.652220
  352  H       1    0.98   0.00         0    0    0   0.039   95.448177  339.321113  128.726254
  353  H       1    0.98   0.00         0    0    0   0.039   97.555221  336.734078  128.336970
  354  H       1    0.98   0.00         0    0    0   0.130   93.265543  337.915156  125.065854
  355  H       1    0.98   0.00         0    0    0   0.130   95.217630  335.464182  124.750270
  356  H       1    0.98   0.00         0    0    0   0.124   94.990863  330.507430  139.599738
  357  H       1    0.98   0.00         0    0    0   0.056   89.833801  329.751540  141.425213
  358  H       1    0.98   0.00         0    0    0   0.047   94.295444  326.344363  142.001580
  359  H       1    0.98   0.00         0    0    0   0.046   88.766105  325.582804  143.099511
  360  H       1    0.98   0.00         0    0    0   0.046   91.139601  325.915396  145.370962
  361  H       1    0.98   0.00         0    0    0   0.046   91.111255  323.275448  143.388639
  362  H       1    0.98   0.00         0    0    0   0.046   89.765770  326.017441  138.562278
  363  H       1    0.98   0.00         0    0    0   0.046   92.120369  323.719534  138.849517
  364  H       1    0.98   0.00         0    0    0   0.046   92.853583  326.688294  137.602297
  365  H       1    0.98   0.00         0    0    0   0.122   88.803900  331.620479  144.868294
  366  H       1    0.98   0.00         0    0    0   0.054   92.804450  332.982971  148.536253
  367  H       1    0.98   0.00         0    0    0   0.045   87.345031  334.608136  147.929651
  368  H       1    0.98   0.00         0    0    0   0.043   91.978640  337.915156  147.876738
  369  H       1    0.98   0.00         0    0    0   0.043   91.468414  336.017871  145.246240
  370  H       1    0.98   0.00         0    0    0   0.046   91.005431  336.571561  151.754456
  371  H       1    0.98   0.00         0    0    0   0.046   88.323909  334.749865  152.379956
  372  H       1    0.98   0.00         0    0    0   0.046   88.000766  337.788545  151.128957
  373  H       1    0.98   0.00         0    0    0   0.044   87.768330  339.663153  147.459109
  374  H       1    0.98   0.00         0    0    0   0.044   87.256214  337.771537  144.802154
  375  H       1    1.04   0.02         0    0    0   0.044   89.546562  340.146923  144.720896
  376  H       1    0.98   0.00         0    0    0   0.137   86.608038  334.326567  136.332402
  377  H       1    0.98   0.00         0    0    0   0.066   83.488100  338.929939  136.421219
  378  H       1    0.98   0.00         0    0    0   0.066   87.486761  341.390363  136.290828
  379  H       1    0.98   0.00         0    0    0   0.066   89.208301  338.517979  136.215239
  380  H       1    0.98   0.00         0    0    0   0.062   88.397609  337.616580  140.293267
  381  H       1    0.98   0.00         0    0    0   0.062   85.778448  339.795434  140.348070
  382  H       1    0.98   0.00         0    0    0   0.063   94.047890  342.316329  141.079394
  383  H       1    0.98   0.00         0    0    0   0.063   92.895157  341.052102  138.256143
  384  H       1    0.98   0.00         0    0    0   0.063   93.208851  339.126471  140.920657
  385  H       1    0.98   0.00         0    0    0   0.138   82.344816  340.326447  132.853416
  386  H       1    0.98   0.00         0    0    0   0.067   85.776559  340.381249  128.550509
  387  H       1    0.98   0.00         0    0    0   0.071   80.509892  338.349793  128.302955
  388  H       1    0.98   0.00         0    0    0   0.071   83.278341  336.601797  127.873987
  389  H       1    0.98   0.00         0    0    0   0.071   82.467648  338.965844  125.717810
  390  H       1    0.98   0.00         0    0    0   0.136   85.047124  344.073774  126.375435
  391  H       1    0.98   0.00         0    0    0   0.075   80.895396  347.446935  128.025165
  392  H       1    0.98   0.00         0    0    0   0.075   82.048129  347.386464  124.960030
  393  H       1    0.98   0.00         0    0    0   0.136   82.021673  350.971274  129.538836
  394  H       1    0.98   0.00         0    0    0   0.075   84.355484  354.297192  130.710466
  395  H       1    0.98   0.00         0    0    0   0.075   86.683627  353.363667  128.563737
  396  H       1    0.98   0.00         0    0    0   0.136   90.221194  352.758955  130.527163
  397  H       1    0.98   0.00         0    0    0   0.070   90.771105  348.871788  134.072289
  398  H       1    0.98   0.00         0    0    0   0.070   94.395599  353.221938  133.025381
  399  H       1    0.98   0.00         0    0    0   0.070   94.348356  350.362782  131.375650
  400  H       1    0.98   0.00         0    0    0   0.070   95.204402  350.415695  134.563618
  401  H       1    0.98   0.00         0    0    0   0.135   90.956298  355.589765  135.121087
  402  H       1    0.98   0.00         0    0    0   0.068   91.704629  355.113554  140.376415
  403  H       1    0.98   0.00         0    0    0   0.069   89.204522  359.323864  137.532378
  404  H       1    0.98   0.00         0    0    0   0.069   92.445402  359.044184  138.103075
  405  H       1    0.98   0.00         0    0    0   0.069   90.359144  359.507167  140.620190
  406  H       1    0.98   0.00         0    0    0   0.144   77.013898  335.547330  120.984046
  407  H       1    0.98   0.00         0    0    0   0.081   80.804689  338.406485  120.976487
  408  H       1    0.98   0.00         0    0    0   0.081   82.688746  335.704177  120.959480
  409  H       1    0.98   0.00         0    0    0   0.145   83.824471  338.774982  117.380338
  410  H       1    0.98   0.00         0    0    0   0.082   80.910514  338.786320  112.981056
  411  H       1    0.98   0.00         0    0    0   0.077   84.209976  341.832559  113.997728
  412  H       1    0.98   0.00         0    0    0   0.077   84.733430  340.430382  111.064874
  413  H       1    0.97   0.01         0    0    0   0.254   87.016219  338.894035  115.741946
  414  H       1    0.98   0.00         0    0    0   0.142   85.098147  334.322787  115.256286
  415  H       1    0.98   0.00         0    0    0   0.083   85.011219  331.652604  110.454492
  416  H       1    0.98   0.00         0    0    0   0.083   86.683627  330.836242  113.324986
  417  H       1    0.98   0.00         0    0    0   0.146   93.086019  329.624928  105.401364
  418  H       1    0.98   0.00         0    0    0   0.083   91.060233  334.500421  104.027533
  419  H       1    0.98   0.00         0    0    0   0.094   91.736755  331.985196  109.088220
  420  H       1    0.98   0.00         0    0    0   0.094   88.902166  332.242199  107.328885
  421  H       1    0.98   0.00         0    0    0   0.146   93.543333  337.609021  103.403924
  422  H       1    0.98   0.00         0    0    0   0.076   98.655042  337.654374  104.607679
  423  H       1    0.98   0.00         0    0    0   0.080   95.323455  342.163261  103.719508
  424  H       1    0.98   0.00         0    0    0   0.080   96.844684  340.407705  101.374358
  425  H       1    0.98   0.00         0    0    0   0.080   98.621027  342.146253  103.547543
  426  H       1    0.98   0.00         0    0    0   0.142   93.531995  339.247413  108.320991
  427  H       1    0.98   0.00         0    0    0   0.079   96.829567  341.857125  111.873676
  428  H       1    0.98   0.00         0    0    0   0.075   91.090468  341.636027  111.900132
  429  H       1    0.98   0.00         0    0    0   0.075   92.904605  343.406701  113.980721
  430  H       1    0.98   0.00         0    0    0   0.076   90.565125  342.939938  107.614234
  431  H       1    0.98   0.00         0    0    0   0.076   95.232748  346.948047  112.410359
  432  H       1    0.98   0.00         0    0    0   0.079   90.946849  346.271525  104.467840
  433  H       1    0.98   0.00         0    0    0   0.079   95.994308  349.988617  109.133573
  434  H       1    0.98   0.00         0    0    0   0.254   93.014210  350.166251  103.301879
  435  H       1    0.98   0.00         0    0    0   0.143   95.950844  335.987636  111.115896
  436  H       1    0.98   0.00         0    0    0   0.084   96.438393  335.263871  116.597992
  437  H       1    0.98   0.00         0    0    0   0.077   94.775434  331.097025  116.350437
  438  H       1    0.98   0.00         0    0    0   0.077   94.282216  331.493867  113.050976
  439  H       1    0.97   0.01         0    0    0   0.255   91.795336  334.235860  116.953260
  440  H       1    0.98   0.00         0    0    0   0.139  110.841886  361.317525  138.371416
  441  H       1    0.98   0.00         0    0    0   0.071  105.930488  359.210480  139.826505
  442  H       1    0.98   0.00         0    0    0   0.069  104.756968  363.570078  141.343955
  443  H       1    0.98   0.00         0    0    0   0.069  107.939267  364.488485  140.720346
  444  H       1    0.98   0.00         0    0    0   0.069  111.325656  362.489155  143.146754
  445  H       1    0.98   0.00         0    0    0   0.069  103.795097  361.882553  145.198997
  446  H       1    0.98   0.00         0    0    0   0.069  112.605000  361.086978  147.268247
  447  H       1    0.98   0.00         0    0    0   0.069  104.945940  360.661790  149.396078
  448  H       1    0.98   0.00         0    0    0   0.067  109.354671  360.055188  150.401413
  449  H       1    0.98   0.00         0    0    0   0.143  102.642364  360.053298  137.197896
  450  H       1    0.98   0.00         0    0    0   0.080  103.451167  363.823302  133.240810
  451  H       1    0.98   0.00         0    0    0   0.091  100.072337  362.283175  131.181008
  452  H       1    0.98   0.00         0    0    0   0.091  101.259085  359.544962  132.734363
  453  H       1    0.98   0.00         0    0    0   0.073  100.557996  370.227583  136.819951
  454  H       1    0.98   0.00         0    0    0   0.066   96.158714  370.601749  133.070734
  455  H       1    0.98   0.00         0    0    0   0.066   98.150485  373.016819  133.843632
  456  H       1    0.98   0.00         0    0    0   0.064   98.944170  370.692456  129.578520
  457  H       1    0.98   0.00         0    0    0   0.064  101.565220  371.180005  131.383209
  458  H       1    0.98   0.00         0    0    0   0.069  101.735296  366.695685  130.982587
  459  H       1    0.98   0.00         0    0    0   0.069   98.543548  366.359314  130.748261
  460  H       1    0.98   0.00         0    0    0   0.116   85.022558  322.848370  128.665783
  461  H       1    0.98   0.00         0    0    0   0.043   79.963761  321.788234  126.437796
  462  H       1    0.98   0.00         0    0    0   0.043   80.795240  320.892503  129.506711
  463  H       1    0.98   0.00         0    0    0   0.043   82.240881  319.443084  126.915896
  464  H       1    0.98   0.00         0    0    0   0.077   91.390935  326.603256  128.323742
  465  H       1    0.98   0.00         0    0    0   0.077   92.895157  325.531781  131.060066
  466  H       1    0.98   0.00         0    0    0   0.077   91.980529  323.379383  128.730033
  467  H       1    0.98   0.00         0    0    0   0.138   95.776989  358.344986  115.367780
  468  H       1    0.98   0.00         0    0    0   0.071   98.721182  358.310970  110.607560
  469  H       1    0.98   0.00         0    0    0   0.071   95.939506  360.045739  111.000623
  470  H       1    0.98   0.00         0    0    0   0.071   95.833681  356.746277  110.959049
  471  H       1    0.98   0.00         0    0    0   0.055  109.543644  336.618804  129.546395
  472  H       1    0.98   0.00         0    0    0   0.055  110.839996  334.577900  131.795169
  473  H       1    0.98   0.00         0    0    0   0.055  111.892574  337.701617  131.600527
  474  H       1    0.98   0.00         0    0    0   0.120   92.942400  331.493867  152.274131
  475  H       1    0.98   0.00         0    0    0   0.050   89.140271  327.786224  153.819927
  476  H       1    0.98   0.00         0    0    0   0.050   90.653942  329.834688  155.919413
  477  H       1    0.98   0.00         0    0    0   0.050   92.371703  327.447963  154.415191
  478  H       1    0.98   0.00         0    0    0   0.073   85.644278  331.134819  138.532043
  479  H       1    0.98   0.00         0    0    0   0.073   82.412846  330.505540  138.286378
  480  H       1    0.98   0.00         0    0    0   0.073   83.654396  331.688509  141.107739
  481  H       1    0.98   0.00         0    0    0   0.132   85.974980  355.644567  136.776487
  482  H       1    0.98   0.00         0    0    0   0.068   83.210310  354.312310  141.423324
  483  H       1    0.98   0.00         0    0    0   0.068   82.448751  353.091547  138.450785
  484  H       1    0.98   0.00         0    0    0   0.068   81.976319  356.296522  139.089512
  485  H       1    0.98   0.00         0    0    0   0.081   75.171416  332.565342  123.047627
  486  H       1    0.98   0.00         0    0    0   0.081   76.881618  331.507095  125.664898
  487  H       1    0.98   0.00         0    0    0   0.081   76.717211  329.649494  122.939912
  488  H       1    0.98   0.00         0    0    0   0.140   80.768784  331.864253  114.797083
  489  H       1    0.98   0.00         0    0    0   0.076   79.735104  326.416173  114.587323
  490  H       1    0.98   0.00         0    0    0   0.076   77.382395  328.725418  114.387012
  491  H       1    0.98   0.00         0    0    0   0.076   79.043464  328.302120  117.208373
  492  H       1    0.98   0.00         0    0    0   0.084   93.222079  327.738981   98.910155
  493  H       1    0.98   0.00         0    0    0   0.084   91.555341  326.767662  101.589787
  494  H       1    0.98   0.00         0    0    0   0.084   94.843464  327.049231  101.701281
  495  H       1    0.98   0.00         0    0    0   0.140   99.594236  332.829903  117.901903
  496  H       1    0.98   0.00         0    0    0   0.079  103.466285  331.369145  114.061979
  497  H       1    0.98   0.00         0    0    0   0.079  102.954169  329.643825  116.830428
  498  H       1    0.98   0.00         0    0    0   0.079  104.256190  332.673056  116.991055
  499  H       1    0.98   0.00         0    0    0   0.079  114.311423  359.391894  139.267146
  500  H       1    0.98   0.00         0    0    0   0.079  114.035523  356.211485  138.420549
  501  H       1    0.98   0.00         0    0    0   0.079  114.101663  357.071310  141.606627
  502  H       1    0.98   0.00         0    0    0   0.133   95.767541  365.890662  136.116973
  503  H       1    0.98   0.00         0    0    0   0.073   93.344912  368.385100  140.523814
  504  H       1    0.98   0.00         0    0    0   0.073   93.632150  365.106426  140.263032
  505  H       1    0.98   0.00         0    0    0   0.073   91.625261  366.754267  138.225907
  506  H       1    0.98   0.00         0    0    0   0.120   94.890708  353.556420  123.081642
  507  H       1    0.98   0.00         0    0    0   0.050  102.065998  358.222153  126.598422
  508  H       1    0.98   0.00         0    0    0   0.047  100.465400  362.487265  126.282838
  509  H       1    0.98   0.00         0    0    0   0.118   89.733645  347.403471  125.776391
  510  H       1    0.98   0.00         0    0    0   0.053   94.027103  343.877242  125.464587
  511  H       1    0.98   0.00         0    0    0   0.044   91.719747  341.513195  128.665783
  512  H       1    0.98   0.00         0    0    0   0.044   89.291449  343.882912  128.550509
  513  H       1    0.98   0.00         0    0    0   0.034   91.642268  346.753406  130.451574
  514  H       1    0.98   0.00         0    0    0   0.039   96.088794  343.153477  130.239925
  515  H       1    0.98   0.00         0    0    0   0.039   96.164383  346.163811  131.594858
  516  H       1    0.98   0.00         0    0    0   0.039   95.737305  345.827440  128.336970
  517  H       1    0.98   0.00         0    0    0   0.039   92.914054  341.995075  133.227582
  518  H       1    0.98   0.00         0    0    0   0.039   90.079465  343.673152  133.461908
  519  H       1    0.98   0.00         0    0    0   0.039   92.895157  345.037534  134.510706
  520  H       1    0.98   0.00         0    0    0   0.055   91.217080  351.298197  122.163235
  521  H       1    0.98   0.00         0    0    0   0.055   90.457410  351.456934  125.458917
  522  H       1    0.98   0.00         0    0    0   0.054   92.997202  359.788736  126.262051
  523  H       2    1.89   0.01         1    0    0   0.129  104.359151  340.497678  114.867137
  524  H       1    0.98   0.00         0    0    0   0.097  110.956463  330.676598  140.782184
  525  H       1    0.98   0.00         0    0    0   0.099   88.940912  339.752245  118.630917
  526  H       1    0.97   0.01         0    0    0   0.234   91.246279  344.601373  119.833381
  527  H       1    0.97   0.01         0    0    0   0.234   86.860065  343.054911  122.124541
  528  H       1    0.97   0.00         0    0    0   0.285   83.497118  340.771286  119.509921
  529  H       1    0.97   0.00         0    0    0   0.285   83.497118  343.565979  118.900017
  530  H       1    0.97   0.00         0    0    0   0.285   91.057744  357.466336  130.662362
  531  H       1    0.97   0.00         0    0    0   0.285   90.589437  357.466336  133.484238
  532  H       1    1.00   0.03         0    0    0   0.288   96.036863  345.410352  118.267887
  533  H       1    0.97   0.00         0    0    0   0.288   96.036863  343.821038  120.646201

          #atoms :   533
          #bonds :   528
          #angl  :   931
          #tors  :   1425
          #nmol  :   9
          #optfrag :   9
           ------------------------------------------------- 
          |                   G F N - F F                   |
          |          A general generic force-field          |
          |                  Version 1.0.3                  | 
           ------------------------------------------------- 
          Number of HB bonds (bound hydrogen)     242508
          Number of HB bonds (unbound hydrogen)   13320
          Number of XB bonds                      1840

 E+G (total)                   0 d,  0 h,  0 min,  0.075 sec
 distance/D3 list               ...        0 min,  0.000 sec (  0.524%)
 non bonded repulsion           ...        0 min,  0.008 sec ( 10.799%)
 dCN                            ...        0 min,  0.003 sec (  3.347%)
 EEQ energy and q               ...        0 min,  0.006 sec (  7.703%)
 D3                             ...        0 min,  0.013 sec ( 17.102%)
 EEQ gradient                   ...        0 min,  0.001 sec (  1.861%)
 bonds                          ...        0 min,  0.010 sec ( 13.892%)
 bend and torsion               ...        0 min,  0.000 sec (  0.541%)
 bonded ATM                     ...        0 min,  0.000 sec (  0.585%)
 HB/XB (incl list setup)        ...        0 min,  0.033 sec ( 43.622%)

         :::::::::::::::::::::::::::::::::::::::::::::::::::::
         ::                     SUMMARY                     ::
         :::::::::::::::::::::::::::::::::::::::::::::::::::::
         :: total energy             -90.450316963269 Eh    ::
         :: gradient norm              0.854453195840 Eh/a0 ::
         ::.................................................::
         :: bond energy              -91.269324240379 Eh    ::
         :: angle energy               0.662589408025 Eh    ::
         :: torsion energy             0.131943596095 Eh    ::
         :: repulsion energy           6.683376850774 Eh    ::
         :: electrostat energy        -5.752600214758 Eh    ::
         :: dispersion energy         -0.659456158108 Eh    ::
         :: HB energy                 -0.106681774147 Eh    ::
         :: XB energy                 -0.000008277219 Eh    ::
         :: bonded atm energy         -0.140156153553 Eh    ::
         :: external energy            0.000000000000 Eh    ::
         :: add. restraining           0.000000000000 Eh    ::
         :: total charge              -1.000000000000 e     ::
         :::::::::::::::::::::::::::::::::::::::::::::::::::::

      ----------------------------------------------------------- 
     |                   =====================                   |
     |                        A N C O P T                        |
     |                   =====================                   |
     |               Approximate Normal Coordinate               |
     |                Rational Function Optimizer                |
      ----------------------------------------------------------- 
      ----------------------------------------------------------- 
     |                   =====================                   |
     |                        A N C O P T                        |
     |                   =====================                   |
     |               Approximate Normal Coordinate               |
     |                Rational Function Optimizer                |
      ----------------------------------------------------------- 

          ...................................................
          :                      SETUP                      :
          :.................................................:
          :   optimization level             tight          :
          :   max. optcycles                  2665          :
          :   ANC micro-cycles                  20          :
          :   degrees of freedom               807          :
          :.................................................:
          :   RF solver                   davidson          :
          :   write xtbopt.log                true          :
          :   linear?                        false          :
          :   energy convergence         0.1000000E-05 Eh   :
          :   grad. convergence          0.8000000E-03 Eh/α :
          :   maxmium RF displ.          1.0000000          :
          :   Hlow (freq-cutoff)         0.1000000E-01      :
          :   Hmax (freq-cutoff)         5.0000000          :
          :   S6 in model hess.         20.0000000          :
          ...................................................

generating ANC from exact Hessian ...
Using GFN-FF Lindh-Hessian
 Shifting diagonal of input Hessian by    1.0214295488659767E-002
 Lowest  eigenvalues of input Hessian
    0.010000    0.010031    0.010113    0.010116    0.010120    0.010144
    0.010155    0.010173    0.010180    0.010182    0.010183    0.010190
    0.010192    0.010198    0.010199    0.010204    0.010207    0.010208
 Highest eigenvalues
    3.355211    3.363881    3.368948    3.554228    3.809675    4.835719


........................................................................
.............................. CYCLE    1 ..............................
........................................................................
     iter. time                 ...        0 min,  0.071 sec
 * total energy  :   -90.4503170 Eh     change        0.0000000E+00 Eh
   gradient norm :     0.3975478 Eh/α   predicted     0.0000000E+00
--- STDERR ---
At line 852 of file ../src/optimizer.f90 (unit = 6, file = 'stdout')
Fortran runtime error: Missing comma between descriptors
(1x,"("f7.2"%)")
               ^

Error termination. Backtrace:
#0  0x105d2f323
#1  0x105d2fef7
#2  0x105d307cb
#3  0x105e3f97b
#4  0x105e4ffe3
#5  0x1050528bb
#6  0x10505535f
#7  0x105009833
#8  0x104e49d37
#9  0x1050c0337
