544
Properties=species:S:1:pos:R:3:move_mask:L:1:forces:R:3 bortezomib=T production=T complex=T |=T MS_B_LYS33=T charge=-1 -1=T energy=-2549.6357531116123 stress="0.0 0.0 0.0 0.0 0.0 0.0 0.0 0.0 0.0" pbc="F F F"
N       47.86000000     179.16600000      62.75300000  F       0.05386266      -0.78132687      -0.27364163
C       47.74100000     178.18400000      63.82800000  F      -0.08536575       0.67707764       0.14113310
C       46.89800000     177.01300000      63.45800000  F      -0.66755022       1.03654441      -1.12748598
O       45.92400000     177.16600000      62.74200000  F      -0.01959063      -0.09717040       0.21491418
C       47.11500000     178.90200000      65.03000000  F       0.68519046      -0.02751295       1.04802481
O       48.05800000     179.83300000      65.54700000  F      -1.14784428       0.64350918      -0.73755176
C       46.75800000     177.97700000      66.20200000  F      -0.17733373      -0.21310893      -0.42507664
N       47.29700000     175.82200000      63.92600000  F       0.65481209      -1.23999594      -0.01552299
C       46.45400000     174.65200000      63.87400000  F       0.22104449      -0.44306202       0.61505593
C       46.46600000     174.00900000      65.26500000  F       1.08624171       1.09643156      -0.55321821
O       47.51200000     173.74100000      65.82500000  F       0.07942428      -0.38391331      -0.28235200
C       46.85700000     173.64600000      62.77200000  F      -0.70721961      -0.06297454      -0.13530429
O       47.03300000     174.32800000      61.52200000  F       0.02783382       0.23317176       0.50739795
C       45.74000000     172.58800000      62.63800000  F       0.45512021       0.13559112      -0.00015021
N       45.27100000     173.88600000      65.86300000  F      -1.08211323      -0.13921231       0.55352817
C       45.10500000     173.16100000      67.09700000  F      -0.35896373      -0.30499765       0.11960260
C       44.05700000     172.10600000      66.86000000  F      -1.50169607       2.09495378      -2.61512637
O       43.14400000     172.33000000      66.03400000  F       1.43407026      -0.47206074       1.51970890
C       44.68600000     174.04700000      68.28800000  F       0.09300011       0.15474449      -0.54153194
O       43.45900000     174.68700000      68.01900000  F      -0.53390146      -0.05673434      -0.02360746
C       45.72600000     175.09400000      68.54400000  F       0.57001494       0.33934437       0.26576537
N       50.41500000     173.24300000      66.68500000  F       0.22108652       0.71680476      -1.04150100
C       51.64600000     173.72200000      66.09000000  F       0.16005548       0.30611399       0.84895729
C       52.22400000     174.79300000      67.03300000  F      -1.79399337      -0.87832572       1.46483983
O       51.71300000     174.99200000      68.14900000  F       0.80293284      -0.14113130      -1.71031506
C       51.44500000     174.21900000      64.66800000  F      -0.50823319       1.44045692      -0.41519602
C       50.85100000     175.67100000      64.62000000  F       0.73056594      -0.83110619       0.17114243
O       49.89900000     175.90100000      65.33700000  F      -0.94860426      -0.63508557       0.64502480
O       51.36800000     176.53800000      63.92800000  F       0.95579421      -0.22868822      -0.60835041
N       53.29800000     175.45600000      66.58800000  F       0.56840518       0.81209001      -1.16514802
C       53.98000000     176.37900000      67.42500000  F       0.18355829       0.56093910       0.73616640
C       54.42000000     177.68400000      66.77600000  F       0.99086780       0.86293171       1.81918507
O       55.29400000     178.39100000      67.32700000  F      -1.36207923      -1.48372302      -1.46090897
C       55.14400000     175.64800000      68.02800000  F       0.25192355      -0.00835696       0.75633941
O       56.10400000     175.32300000      67.08600000  F       0.31896210      -0.01951961      -0.29885352
N       53.73900000     178.07000000      65.67300000  F       0.00823247      -0.01468110      -0.61171434
C       54.13100000     179.24900000      64.92000000  F      -0.62939060       0.20234907      -0.12626051
C       53.30200000     180.45100000      65.35500000  F      -0.56029390      -2.82841098      -0.07725684
O       52.12100000     180.31100000      65.52100000  F      -0.59552529       0.23395464      -0.13112265
C       53.87800000     179.01400000      63.43500000  F       0.10733165       0.36028926      -0.35762851
C       54.02700000     180.29000000      62.55900000  F      -0.12842496      -0.43024677       0.83063636
C       54.11000000     179.93900000      61.10900000  F      -0.03625152      -0.05182485      -0.57690549
N       55.30700000     179.17700000      60.79000000  F      -0.27204025       0.19412073       0.75543407
C       55.63600000     178.74900000      59.56100000  F       0.90317944      -0.17078813       0.52885864
N       54.89600000     179.02000000      58.51500000  F      -1.05052917       0.19317301      -1.39268379
N       56.79600000     178.10500000      59.36800000  F       0.51550861      -0.35219459       0.10411199
N       53.93000000     181.57900000      65.50300000  F       2.09002778       2.54764860      -0.04393265
C       53.26600000     182.85600000      65.52000000  F      -0.07319739       0.43424589       0.08305930
C       53.69100000     183.73000000      64.34400000  F       2.25298219      -0.52716998       1.17067970
O       54.86600000     183.78000000      63.98800000  F      -0.91000899      -0.54111958      -0.15918432
C       53.60800000     183.58900000      66.80600000  F      -0.29029600       0.14210105      -0.06438416
N       52.76300000     184.56000000      63.88700000  F      -1.99915266       0.71161122      -0.11155383
C       52.95600000     185.45200000      62.79600000  F       0.45635483       0.43980121      -0.69606747
C       52.44100000     186.84600000      63.06900000  F      -0.98284466      -1.18763769       0.58819499
O       51.42100000     187.04100000      63.69000000  F       0.42639052      -0.08335132      -0.84082410
C       52.35300000     184.90300000      61.47200000  F       0.18484518      -0.87139402       0.38394265
O       51.03100000     184.45400000      61.69800000  F      -0.45915692       0.77205873      -0.01516890
C       53.12900000     183.68100000      60.98200000  F       0.31875853       0.29973680      -0.08106747
N       53.14600000     187.82700000      62.51900000  F       1.26981849       1.53513351      -0.52973796
C       52.76100000     189.24900000      62.50900000  F       0.57491523      -0.70800510      -0.46865784
C       52.67800000     189.56500000      61.02800000  F       1.58942261       0.88506717       0.53080334
O       53.69300000     189.79000000      60.39100000  F      -0.08963757      -0.31289179       0.22781774
C       53.84300000     190.08700000      63.16900000  F      -0.24876818       0.01074043       0.12156781
N       56.06200000     178.77600000      70.10600000  F      -0.78578499       0.72178774      -1.05238793
C       55.01900000     179.19100000      70.99100000  F      -0.89189079      -0.86654323       0.07843246
C       54.41400000     177.93400000      71.61200000  F      -0.13463994      -0.66147418      -2.20044151
O       54.12100000     176.98500000      70.87400000  F       0.42679967       0.98934759       0.79401389
C       53.88000000     179.91700000      70.23400000  F       0.46248562       0.12916178       0.19902629
C       52.80800000     180.37200000      71.19200000  F      -0.47141561      -0.08424821       0.33267373
C       54.42500000     181.11400000      69.49900000  F       0.18394800       0.16756914      -0.36894575
N       54.14500000     177.97100000      72.92100000  F      -0.14618624      -0.14456277       1.52528038
C       53.36600000     176.92500000      73.57300000  F      -0.71640547       0.34091323      -0.23383109
C       51.87300000     177.28800000      73.49500000  F       2.57995426      -0.35762279       0.25050646
O       51.45600000     178.15600000      74.18100000  F      -0.84494310       1.95239953       1.47012197
C       53.75900000     176.74600000      75.01900000  F       0.10360814      -0.02938502       0.20797044
C       55.21400000     176.33700000      75.18500000  F       0.23478440      -0.32778775      -0.12795321
C       55.51700000     174.96900000      74.53300000  F      -0.10727902      -0.10785410       0.48309830
C       56.83900000     174.31600000      75.00400000  F      -0.33827040       0.38856268      -0.38223264
N       57.89700000     174.64600000      74.01500000  F       0.31883592      -0.01708709       0.02078114
N       51.13400000     176.62500000      72.64300000  F      -1.43026902      -1.87241691      -1.81251433
C       49.71600000     176.90100000      72.43200000  F      -0.35588887       0.20635279      -0.13673924
C       48.77200000     176.04900000      73.26900000  F      -3.31531079       2.15924486      -0.89774294
O       47.52800000     176.28000000      73.26500000  F       2.82199107      -0.53126980      -0.22406984
C       49.37100000     176.78000000      70.95000000  F      -0.84204738      -0.65167704       0.51872747
C       50.18100000     177.65300000      70.07500000  F       0.74295290       0.64058958       0.13282043
C       49.72600000     177.66300000      68.64600000  F      -0.05993810       0.00117580      -0.64119567
C       50.62200000     178.54800000      67.79200000  F       0.03078996      -0.16408791      -0.06950413
N       50.30600000     178.48400000      66.33800000  F       0.09910959       0.05152804       0.38878217
N       49.31500000     175.10600000      74.01100000  F       1.29814561      -1.72725741       1.43401971
C       48.58100000     174.35100000      75.03000000  F      -0.25444228       0.14368039      -0.31690983
C       48.87400000     174.86500000      76.41100000  F      -0.32657453       0.39038453      -1.86835554
O       49.97800000     174.85800000      76.83600000  F       2.47986268      -0.51263194       0.80513335
C       48.86300000     172.86200000      74.93600000  F      -0.30730009      -0.31479054      -0.31556140
C       48.00700000     172.11800000      75.94000000  F      -0.00117291      -0.23054623       0.39502632
C       48.53800000     172.35300000      73.53300000  F       0.22272217       0.05393119      -0.12158381
N       47.88300000     175.43300000      77.07900000  F      -1.73003545       0.81054514       1.62509003
C       48.07500000     175.99100000      78.43700000  F      -1.25051667      -0.86535725       0.03463700
C       47.60000000     174.96900000      79.48700000  F      -2.81180528       0.43022285      -2.57148620
O       46.50400000     174.40000000      79.36000000  F       1.51183610       0.58366005       0.02108208
C       47.23000000     177.28900000      78.56000000  F       1.06110505      -0.45279723       0.49107155
C       47.92700000     178.30100000      77.68600000  F       0.04986691       0.03250295      -0.58698702
C       47.16900000     177.86500000      79.97500000  F      -0.21349432      -0.40896638       0.21732240
C       46.91300000     179.26200000      77.19800000  F      -0.38853663       0.84247936      -0.09976356
N       45.06900000     177.49700000      72.37500000  F       1.98364289       1.09052332      -1.34722937
C       45.08700000     178.88400000      71.87400000  F       0.80417058      -0.43579678       0.22401990
C       45.16900000     178.92200000      70.35700000  F       3.18057926      -1.61280157       0.19542174
O       46.09600000     178.35500000      69.73900000  F      -1.55279465       0.62765131       1.05464287
C       46.33400000     179.63700000      72.44600000  F      -0.66779397       0.01372794      -0.51948412
C       46.39300000     179.61300000      73.94600000  F       0.08278559      -0.24024133       0.39504854
S       47.39400000     180.86300000      74.73100000  F       0.69357799       0.10449328      -0.56079600
C       49.08400000     180.44300000      74.22900000  F      -0.75051741      -0.02725875       0.08351384
N       44.31000000     179.72300000      69.76300000  F      -1.64677930       1.27186233      -0.60895220
C       44.37900000     180.09100000      68.37300000  F      -0.72286567       0.66131350      -0.10215978
C       43.70300000     181.47000000      68.24700000  F      -0.14557106      -0.91998637       1.46703614
O       42.76100000     181.74200000      68.96300000  F      -0.16703218      -0.24885499      -0.15308235
C       43.61800000     179.08600000      67.55700000  F       0.03917338      -0.28270179      -0.32281950
N       44.21300000     182.35000000      67.39100000  F       0.65991854       1.13912302      -1.75696748
C       43.68400000     183.70300000      67.15500000  F       0.04908642      -0.91670437       0.08416668
C       44.74000000     184.66900000      67.54400000  F       1.90818811      -2.23801792      -0.56220270
O       45.90700000     184.42800000      67.24000000  F      -0.99599675       0.76709599      -0.17035598
N       44.35800000     185.66900000      68.31100000  F      -1.88660251       1.64548117       0.72464313
C       45.21700000     186.65900000      68.81200000  F       1.02423798       0.12034786       0.59535382
C       46.03400000     186.08700000      69.94800000  F      -1.39839261       0.23467218       0.14905584
O       45.50900000     185.57800000      70.91900000  F      -0.26627357       0.06351815      -0.32841774
N       47.35700000     186.20700000      69.84900000  F       1.57902833       0.24438898       0.07306382
C       48.24700000     185.66100000      70.87300000  F       0.84053199       0.60492898       0.21533455
C       48.00300000     186.30600000      72.24300000  F       0.17403825      -2.52796162       0.76140531
O       47.89400000     185.60300000      73.25900000  F       0.19563129       0.62134972      -1.42385717
C       49.74500000     185.87000000      70.46700000  F      -0.95673236      -0.31384238       0.34789835
N       47.99700000     187.63100000      72.31600000  F      -0.32137405       1.37979750       0.26093921
C       47.79000000     188.29000000      73.60400000  F      -1.06179930      -0.15641110       0.16144866
C       46.37300000     187.97100000      74.17700000  F       2.02320925      -0.50011265       0.56133889
O       46.25200000     187.68900000      75.35200000  F       0.02066825       0.45381407       0.15898695
C       47.94400000     189.77600000      73.45900000  F       0.22476446       0.33749149       0.03927845
N       41.67600000     177.26100000      64.19100000  F       1.35265590       1.43740224      -0.57019373
C       42.83500000     178.06900000      63.66600000  F      -1.22065312      -1.33828685      -0.31548341
C       42.79500000     178.05500000      62.14600000  F      -3.28300223      -3.04448842       0.33633763
O       41.98100000     177.33200000      61.51700000  F       1.31058912       1.63739690       1.38404053
N       43.70000000     178.80000000      61.55400000  F       2.95710700       1.71657445      -0.62902687
C       43.77700000     178.96000000      60.13300000  F      -1.15778475      -0.52741323      -0.54704540
C       44.07100000     177.67100000      59.40100000  F      -1.45262709       0.50336278      -1.66489897
O       43.68700000     177.52300000      58.23400000  F       0.61393509       0.25624811       1.29477234
C       44.80300000     179.97300000      59.82800000  F       1.65872097      -0.02374896      -0.25690823
O       46.08600000     179.49100000      60.29100000  F      -0.79677046       1.01618525       0.17526899
N       44.71300000     176.72000000      60.08000000  F       0.56644765      -1.37241649       0.86101905
C       44.95800000     175.39500000      59.51400000  F       0.27652272      -0.03109998      -0.48229033
C       43.97000000     174.30600000      59.82900000  F       0.64080995      -0.93376381      -1.27820385
O       44.14200000     173.16500000      59.37800000  F      -0.11330335       1.30458054       0.81750512
N       49.08300000     175.18400000      55.16800000  F       0.16971252      -0.30968721       1.64599509
C       48.77300000     176.46600000      55.76000000  F       0.13352863       0.17151026       0.28747592
C       50.03300000     177.26300000      56.05900000  F      -0.75670472      -1.04516653       1.00430384
O       50.77800000     176.91400000      56.95100000  F       0.04067212      -0.20081561      -0.28471003
C       47.97300000     176.28200000      57.05300000  F      -0.31414591       0.81533337       0.24973770
C       47.64800000     177.61700000      57.74200000  F       0.23138998       1.04650479       0.94027642
O       47.64400000     178.66700000      57.04600000  F      -0.09040107      -1.45437497       0.75385706
O       47.47400000     177.60000000      58.99700000  F       0.12539522      -0.30903154      -2.60413003
N       50.18500000     178.39700000      55.37800000  F       0.57344847       1.41026293      -0.77548537
C       51.34500000     179.27200000      55.58400000  F       0.23423812       0.28548386       0.67277431
C       51.47100000     179.75500000      57.04700000  F       3.07966779      -0.37423198      -0.65949572
O       52.59100000     180.04300000      57.53400000  F      -2.39560811      -0.23484357      -1.11914850
C       51.30300000     180.47000000      54.66000000  F       0.05057997      -0.00738138      -0.04803208
N       50.33800000     179.82100000      57.73300000  F      -1.16133613       0.19117258       1.12858803
C       50.34100000     180.33300000      59.08900000  F      -0.75176595       0.42869175       0.67086435
C       50.44500000     179.24900000      60.14900000  F      -0.49145885       2.09323433       1.85741908
O       50.31300000     179.56900000      61.34700000  F       0.13021839      -0.77852613      -1.99209460
C       49.12600000     181.31500000      59.32700000  F       0.90238416      -1.65812045       0.40941634
C       49.21100000     182.37300000      58.33900000  F      -1.48405989      -0.27078920      -0.75938077
C       48.53100000     182.29000000      57.13500000  F       0.00715157       0.44174832      -0.89627099
C       49.95400000     183.46800000      58.56100000  F       1.47202636       1.49994300       0.37535058
C       48.65500000     183.29900000      56.16700000  F      -1.20682237      -2.30897486       0.57492587
C       50.14300000     184.42600000      57.58500000  F       0.25327180      -0.03572100       1.45346923
C       49.46900000     184.34700000      56.40300000  F       0.63928081       0.93399721      -0.52364004
O       49.67000000     185.32700000      55.48700000  F       0.05505465       0.73444841      -0.71409959
N       50.74300000     178.00900000      59.76100000  F       0.07933083      -1.31997160      -0.34449642
C       51.02000000     176.97300000      60.72600000  F       0.47260236      -0.64640366      -0.23495357
C       52.40300000     176.36000000      60.41500000  F       0.26716713       0.22977627      -4.70504715
O       52.83300000     176.22500000      59.18500000  F      -1.62397918       0.44262709       4.81048725
C       49.91600000     175.89400000      60.78300000  F      -0.46148253       0.52698428      -0.04479365
O       48.59300000     176.43000000      61.02500000  F       1.07216947      -0.27399139       0.07249360
N       58.01900000     190.54800000      73.59500000  F      -1.15347266       2.87067492      -0.74787365
C       56.60800000     190.95700000      73.70700000  F       0.35573295       0.27151081       0.51963871
C       56.06900000     191.48400000      72.40000000  F       0.99244465      -0.42937960       0.95928249
O       56.75700000     192.12400000      71.66200000  F       1.07298765       0.78485539      -0.75099512
C       56.46100000     192.09100000      74.76800000  F      -0.21321967      -0.24009604      -0.87717691
C       56.86500000     191.70400000      76.13100000  F       0.27711691      -0.01421797      -0.13728265
C       58.19500000     191.58900000      76.45600000  F       0.49548945       0.05222475      -0.29092113
C       55.92500000     191.41800000      77.08200000  F      -0.99486518       0.04065882       0.09077107
C       58.58700000     191.17200000      77.69800000  F      -0.93399772      -0.37469423       1.09702772
C       56.26300000     191.02800000      78.34700000  F       0.29049283      -0.24383584       0.20622894
C       57.59400000     190.87200000      78.65400000  F       0.99265293       0.28580497      -0.46124836
N       54.78400000     191.26700000      72.14300000  F      -2.24703135      -0.59616261       0.19925596
C       54.06500000     192.08500000      71.20700000  F      -0.48565020       0.71614463       0.05342365
C       53.39300000     193.30200000      71.92900000  F       1.58264231      -1.83836704       0.42185817
O       53.42100000     193.43500000      73.14300000  F       0.23033925      -0.51959935      -0.43369750
C       53.11400000     191.21700000      70.35300000  F      -0.34492254       0.26161634       0.40909999
C       51.76300000     190.96700000      70.99500000  F      -1.64821624      -0.77283984       0.00468399
O       51.42500000     191.44700000      72.08100000  F       0.83563137       0.39445502      -0.05699483
O       50.94700000     190.26100000      70.36900000  F       1.98702411       0.72016035      -0.12771846
N       52.85200000     194.26100000      71.16400000  F      -0.98073123       0.69718352       0.36160796
C       52.41200000     195.50300000      71.82400000  F      -0.99874749       0.39491943       0.18317104
C       51.27800000     195.35200000      72.84000000  F       1.94016805       1.79907885       0.22709518
O       51.11000000     196.21600000      73.68500000  F      -0.04746532      -0.01207276      -0.38038408
C       51.90800000     196.33900000      70.63800000  F      -0.06691884       1.17068621       0.85697467
C       52.79800000     195.92400000      69.51600000  F       0.00020839      -0.13210265      -1.45622067
C       52.91000000     194.41600000      69.70300000  F       0.56790841      -0.36990813      -0.36979916
N       44.18000000     170.99300000      67.55100000  F      -0.48903160      -2.46946470       1.26254607
C       43.11900000     169.96000000      67.53700000  F       0.52339474       0.52009251      -0.07315216
C       49.04800000     172.11100000      68.30100000  F       1.19071480      -0.19661285      -0.30941460
C       50.41400000     172.27400000      67.61400000  F       0.99040078      -2.63287561       1.86888320
O       51.40800000     171.53300000      67.90800000  F      -2.70512852       2.12962684      -0.78866947
N       51.47700000     189.61000000      60.46800000  F      -2.17293797      -0.26507846      -0.99074034
C       51.28700000     189.63400000      59.01600000  F       0.24837276       0.10234621       0.38299061
C       58.36100000     178.06100000      69.54600000  F      -0.62816947       0.36571420       0.43472866
C       57.29000000     178.48500000      70.54800000  F       1.30544548      -1.23070668      -1.37932372
O       57.54400000     178.47200000      71.71200000  F       0.68861820       0.26937154       1.84691557
N       48.37100000     174.86500000      80.53200000  F       2.03243593      -0.14271494       1.97985254
C       48.08100000     173.98100000      81.60400000  F      -0.26723140      -0.39339894       0.35889916
C       44.34400000     175.54900000      73.60400000  F      -0.24795184       0.85244315      -0.00970020
C       44.10400000     176.97400000      73.11200000  F      -2.08169670      -1.27557049       0.94470912
O       43.04800000     177.55200000      73.33400000  F       0.54044897      -0.27451087       0.11064460
N       45.34300000     187.98800000      73.32800000  F      -0.96927913       0.28778696      -1.09628711
C       44.01100000     187.70000000      73.78800000  F      -0.02711835      -0.20280601      -0.01854324
C       40.64600000     175.44500000      65.43000000  F       0.84934529       0.01495637      -0.21003769
C       41.89000000     176.12400000      64.89200000  F       1.97953577      -1.97468066       1.31980903
O       43.04500000     175.65300000      65.14300000  F      -3.01370603       1.36405081      -0.63073792
N       42.87500000     174.66500000      60.52700000  F      -0.53081534       0.35599975       0.67264431
C       41.90000000     173.71000000      60.95700000  F      -0.08435922      -0.20375413      -0.00407954
C       49.29000000     173.47900000      53.40900000  F       0.05431653       1.19557780       0.31654212
C       49.14800000     174.95100000      53.85500000  F      -0.07789044      -1.93211462      -1.12077341
O       49.04600000     175.81700000      53.03200000  F      -0.04822129       0.79755012      -0.71968162
N       53.10200000     176.00200000      61.50000000  F       1.53309169      -0.73109727       0.60040050
C       54.47400000     175.41800000      61.39000000  F      -0.99897177       0.44151226       0.02745982
C       60.05000000     189.24300000      73.95900000  F      -1.63124292      -0.05538456       0.07373009
C       58.49000000     189.38000000      73.95400000  F       2.99884944      -1.77480948      -0.02244430
O       57.80600000     188.43100000      74.22400000  F      -0.52912536      -0.63794589       0.57133634
N       50.51300000     194.28900000      72.73400000  F      -1.86637701      -2.03685997       0.19833845
C       49.41200000     194.11700000      73.68000000  F       0.33065059      -0.09628335      -0.24902407
O       44.57000000     181.16200000      63.51200000  F      -0.54301482      -0.18574099      -0.41829285
O       48.60300000     189.36900000      69.98000000  F      -1.10788615      -0.32803813      -0.45762524
O       50.73300000     181.88100000      62.89200000  F       0.60769283      -0.44378759      -0.00584808
H       48.27334347     178.74301041      61.92737471  F      -0.01770304      -0.00489122       0.01534212
H       48.47287774     179.91526746      63.04922893  F       0.04456699      -0.04012075      -0.05350601
H       48.74284020     177.82669209      64.11053705  F      -0.00186460      -0.00045316       0.00324045
H       46.23166044     179.45568044      64.68812835  F      -0.05141597       0.14415316      -0.00644047
H       47.61042258     177.35109828      66.45957391  F       0.00436287      -0.00167949       0.00206888
H       45.93006988     177.31640717      65.94500205  F      -0.00345681      -0.00504398      -0.00359366
H       46.49123017     178.54791649      67.08845540  F      -0.00632146       0.00234101       0.00168313
H       48.12759088     175.73989080      64.52762564  F      -0.00772292       0.00346413      -0.00139960
H       45.43864261     175.01154596      63.65816358  F      -0.00197301       0.00055288       0.00100002
H       47.81953114     173.18306961      63.03418756  F       0.00003594      -0.00252137      -0.00086044
H       46.61209031     175.21269398      61.64435292  F      -0.01305550      -0.00736908      -0.00577938
H       44.80292982     173.06596928      62.35784012  F      -0.00169134       0.00145032      -0.00064817
H       45.57972328     172.05384255      63.57445802  F      -0.00094395      -0.00064061       0.00187360
H       45.98321498     171.86656558      61.85951194  F       0.00010750      -0.00155685      -0.00136110
H       44.42061768     174.31138832      65.47499583  F       0.00149457      -0.00124481       0.00102674
H       46.06203332     172.67262572      67.31989988  F      -0.00102693      -0.00197228       0.00197681
H       44.52341936     173.42457404      69.18294018  F       0.00081266      -0.00184552       0.00103934
H       43.39968255     174.96187000      67.06801075  F       0.00192475       0.00143675      -0.00144366
H       45.89791287     175.67613715      67.64057696  F      -0.00067733       0.00241656      -0.00211504
H       46.68043304     174.65737113      68.84012651  F       0.00300561      -0.00183602       0.00042315
H       45.40617408     175.78735950      69.32337494  F      -0.00039274       0.00013747       0.00202951
H       49.54228790     173.71145364      66.39552503  F      -0.00697459       0.00208743      -0.00324008
H       52.33319638     172.86087232      66.09935548  F       0.00162437      -0.00386298       0.00032827
H       52.39137360     174.22737482      64.12351269  F       0.00106031       0.00000711      -0.00200789
H       50.77350741     173.54513701      64.13249111  F      -0.00310815      -0.00161125      -0.00168850
H       53.81689421     175.15312199      65.76097034  F       0.00306547      -0.00105538       0.00260596
H       53.27573011     176.63639662      68.23512759  F      -0.00381390       0.00188344       0.00536748
H       55.61344528     176.24560101      68.82399873  F       0.00264284       0.00329818       0.00549618
H       54.80651131     174.70690457      68.48316820  F       0.00031056      -0.00393219       0.00211161
H       56.43558880     176.14652249      66.66558333  F       0.00341692      -0.00370195       0.00159887
H       52.97369255     177.50478084      65.27675817  F      -0.00301939       0.00072633      -0.00172893
H       55.19346828     179.44562042      65.11881571  F       0.00271957       0.00019619       0.00108469
H       54.54032658     178.22244055      63.07438776  F      -0.00034609      -0.00275591      -0.00117043
H       52.86007885     178.62405437      63.31704616  F      -0.00994014       0.00137533      -0.00046742
H       53.17701123     180.95500012      62.76018862  F      -0.02941435       0.00717050       0.00595523
H       54.92342733     180.84319063      62.85872668  F       0.00094316       0.00181680       0.00070031
H       53.24191834     179.33948791      60.80919508  F      -0.00586373      -0.00191759      -0.00136423
H       54.10271449     180.83653297      60.48006019  F      -0.00207795       0.00149449      -0.00219212
H       55.12898491     178.64929293      57.60784146  F      -0.00435564       0.00059169       0.00150979
H       53.96942468     179.42496454      58.49514096  F      -0.00597890      -0.00030026      -0.00618217
H       57.10789730     177.79128510      58.46171891  F      -0.00063433      -0.00044264       0.00170894
H       57.45331154     177.89082361      60.10335891  F      -0.00102206      -0.00091816      -0.00187708
H       54.92504221     181.65787376      65.28448319  F       0.00169985       0.00150409      -0.00621953
H       52.17997631     182.66609633      65.45282867  F      -0.01138941      -0.05612256      -0.09948040
H       54.68696074     183.70442074      66.90028755  F       0.00249147       0.00079293       0.00133042
H       53.23894664     183.05088091      67.67446635  F       0.01640559      -0.00178496       0.00392334
H       53.15912900     184.58444225      66.81288884  F       0.02853415      -0.00406511       0.01806300
H       51.84725449     184.61062636      64.35753005  F      -0.13808718      -0.11974708      -0.41864852
H       54.04764363     185.52747513      62.67797534  F       0.00240050      -0.00065032      -0.00100643
H       52.32684178     185.69485420      60.70644146  F       0.01019209      -0.00188741      -0.00523764
H       50.59652801     185.10662277      62.28543213  F       0.13987509      -0.17029268       0.03030908
H       53.10864657     182.91191302      61.75000338  F      -0.02584831       0.00159374       0.01250306
H       54.17164310     183.92371743      60.77860536  F       0.00225867       0.00073651       0.00030231
H       52.68686133     183.26436255      60.07869424  F      -0.00583206      -0.00090232       0.00255059
H       53.96737385     187.62835968      61.94539324  F       0.00347410       0.00012179      -0.00054993
H       51.78566557     189.35430251      63.00594926  F      -0.00307718      -0.01133911       0.00947769
H       54.78444691     189.96370583      62.63491841  F       0.00178018      -0.00194437      -0.00116681
H       53.99538895     189.77858267      64.20324752  F       0.08626375       0.00886870      -0.29336844
H       53.58682989     191.14628656      63.15503232  F       0.00278853      -0.00056901      -0.00494337
H       55.79295203     178.63408120      69.12217915  F       0.00099475       0.00327942       0.00321081
H       55.45189028     179.83386107      71.76698329  F       0.00035167       0.00182752       0.00067798
H       53.45651026     179.19818038      69.51270446  F      -0.00149633      -0.00086381      -0.00090609
H       53.21102709     181.07634476      71.92001976  F       0.00016337       0.00073052       0.00090660
H       52.38806611     179.53331092      71.75000100  F      -0.00067294      -0.00107290       0.00094062
H       51.98690502     180.86814529      70.67492657  F      -0.01805048       0.01582274      -0.02674299
H       54.89349255     181.81630995      70.18887450  F       0.00076397       0.00089730       0.00075531
H       53.62556861     181.63882224      68.98013913  F       0.00040357       0.00062535      -0.00001686
H       55.17366210     180.82516478      68.75997007  F       0.00173269      -0.00027875       0.00029065
H       54.24891698     178.83226348      73.46071347  F      -0.00312728      -0.00048176      -0.00051423
H       53.53473743     175.99775761      73.00953817  F       0.00019381      -0.00139329      -0.00064549
H       53.10056567     176.00313792      75.48485824  F      -0.00183379      -0.00006038       0.00161276
H       53.55685860     177.68549406      75.54627702  F      -0.00130151       0.00114911       0.00142537
H       55.87174896     177.10198570      74.75619654  F       0.00132486       0.00150379       0.00013164
H       55.46740714     176.29341699      76.25133222  F       0.00160187       0.00144592       0.00171488
H       54.68175301     174.29333225      74.75662445  F      -0.00160230      -0.00106933      -0.00013489
H       55.52112834     175.06366895      73.44173158  F      -0.00161606      -0.00120052      -0.00202020
H       57.11229585     174.67458112      76.00302547  F       0.00056652       0.00022001       0.00175687
H       56.74136013     173.22603683      75.08707286  F       0.00000101      -0.00177847       0.00211214
H       57.94860792     175.66444343      73.85117246  F      -0.00298495      -0.00241547      -0.00722081
H       57.69723644     174.20896106      73.10081163  F      -0.00346012       0.00854615      -0.00810101
H       51.53981724     175.91545694      72.02942623  F      -0.00092661       0.00013546       0.00085318
H       49.56613243     177.94312357      72.74592622  F       0.00000481       0.00237605       0.00111978
H       49.48404985     175.73303724      70.64482247  F      -0.00188892      -0.00187087      -0.00035251
H       48.30403404     177.00335691      70.81651819  F      -0.00367811      -0.00104258      -0.00068808
H       50.16522143     178.67875390      70.46687015  F       0.00322071      -0.00407291       0.00398999
H       51.23644357     177.35120353      70.12930485  F       0.00223498       0.00179110       0.00087764
H       49.73534672     176.64230839      68.24210539  F      -0.00313817      -0.00106415       0.00005487
H       48.68421163     177.99863497      68.57717114  F      -0.00330258      -0.00003159      -0.00105977
H       50.57347757     179.58432966      68.14063280  F      -0.00005740       0.00287207       0.01310371
H       51.66611766     178.24588081      67.93640107  F       0.00118421       0.00079748       0.00235289
H       49.41547584     178.94909140      66.12910306  F      -0.00050639      -0.01204106      -0.02091839
H       50.25014912     177.51958411      65.97951632  F      -0.00979031       0.00315719       0.01097184
H       50.33051264     175.09821459      74.16443442  F      -0.00200255       0.00010013      -0.00000378
H       47.51559042     174.51587022      74.81842655  F      -0.00206010       0.00078656      -0.00099959
H       49.93155934     172.70606123      75.15791859  F       0.00200367      -0.00027101       0.00042539
H       46.94700580     172.27877222      75.74217327  F      -0.00124934       0.00008550      -0.00009555
H       48.20270542     172.45800463      76.95841552  F       0.00022551       0.00031228       0.00126153
H       48.19042850     171.04332831      75.90497179  F       0.00029842      -0.00128392      -0.00014112
H       47.48549889     172.51186513      73.29848722  F      -0.00110899       0.00042540      -0.00036717
H       48.74429426     171.28665680      73.43429211  F       0.00015861      -0.00134342       0.00016112
H       49.12244934     172.88173652      72.77910930  F       0.00063997       0.00065513      -0.00075526
H       46.91261915     175.36012905      76.76685539  F       0.00059243      -0.00074037       0.00194097
H       49.14172372     176.20224211      78.57391025  F       0.00145419       0.00089807       0.00037684
H       46.21733260     177.06860761      78.18870259  F      -0.00200597      -0.00045229      -0.00109974
H       48.73819583     178.79461586      78.23760350  F       0.00193852       0.00066728       0.00059331
H       48.41255062     177.79955897      76.83558147  F       0.00181530      -0.00063167      -0.00156078
H       48.17040388     178.06376357      80.35642708  F       0.00125064       0.00092143       0.00023645
H       46.69525775     177.16102385      80.66012452  F      -0.00034807      -0.00085324       0.00113122
H       46.60566015     178.79709513      80.01528594  F      -0.00121106       0.00087533      -0.00003780
H       46.34047798     179.69530103      78.02038603  F      -0.00082166       0.00231843       0.00112055
H       46.19232781     178.78793796      76.52886163  F      -0.00222096      -0.00102724      -0.00053381
H       47.37731371     180.09958353      76.67755229  F       0.00005632       0.00117408      -0.00273443
H       46.00388578     177.07481403      72.41854206  F      -0.00053114       0.00350407       0.00065472
H       44.15579338     179.35689596      72.21309932  F      -0.00140961       0.00043451       0.00021474
H       46.30025853     180.67526791      72.09906827  F       0.01380467       0.01399603      -0.01251123
H       47.24226903     179.20619371      72.01302125  F       0.00245155       0.00311570      -0.00296424
H       46.73423531     178.63175305      74.28695768  F      -0.00057450      -0.00082464       0.00122534
H       45.38320719     179.73748973      74.34649372  F      -0.00128906      -0.00185893       0.00182664
H       49.78069145     181.16474743      74.64576635  F       0.00047977       0.00087924      -0.00001767
H       49.17122357     180.46353551      73.14684772  F      -0.00126424       0.00458434      -0.00960357
H       49.35985020     179.45269683      74.58391241  F      -0.00082330       0.00003166       0.00041439
H       43.58929809     180.23475560      70.28806336  F       0.00030914      -0.00009052      -0.00214696
H       45.43586601     180.15926210      68.08162888  F      -0.00286665      -0.00692905       0.00188425
H       42.57289784     179.07176837      67.86497441  F      -0.00129011       0.00009200       0.00043017
H       44.01702899     178.08175209      67.70394088  F       0.00221764      -0.00147800      -0.00021181
H       43.65364763     179.32354178      66.49354005  F       0.00367911       0.00595021      -0.00315109
H       45.02941685     182.11431952      66.81224477  F      -0.04687820      -0.01088798      -0.15334714
H       42.78495590     183.82665596      67.76516895  F      -0.00073431      -0.00042044      -0.00058457
H       43.40775319     183.82385297      66.10409155  F       0.00343477      -0.00432539      -0.00412981
H       43.41339799     185.68314713      68.70910946  F       0.00078555      -0.00302035       0.00208793
H       44.65770489     187.53574883      69.15350758  F      -0.00222271      -0.00063294       0.00023341
H       45.88102724     186.98323991      68.00424346  F      -0.01893641      -0.00654505       0.00213261
H       47.80507546     186.71374391      69.06903691  F       0.01795514      -0.40980968       0.15771143
H       48.00206877     184.59562275      70.97055888  F       0.00998262      -0.03552415      -0.02845287
H       49.97652127     186.93321682      70.43019414  F      -0.13162227      -0.00030669       0.09526248
H       49.94528651     185.46108236      69.47791927  F      -0.08805454      -0.05334846       0.01030982
H       50.41787607     185.40363304      71.18483632  F      -0.00131446      -0.00621753       0.00642622
H       48.14108270     188.22322279      71.48588010  F       0.00084268      -0.00265775       0.02546699
H       48.52928733     187.87180523      74.30328910  F       0.00022165      -0.00006701       0.00007031
H       47.20100001     190.16570942      72.76360739  F      -0.00253213       0.00114508       0.00422416
H       48.92812566     190.03251353      73.06294654  F      -0.00011190      -0.00108248       0.00617263
H       47.81092623     190.28545396      74.41374792  F      -0.00002607       0.00037727       0.00149456
H       40.75446168     177.51231413      63.82872185  F      -0.00068072       0.00149030      -0.00078492
H       42.80894974     179.08546344      64.06303857  F       0.00315962       0.00485567       0.00224967
H       43.75490099     177.57658212      63.99790138  F       0.00350450       0.00057062       0.00014683
H       44.68640915     178.74538401      61.89980387  F      -0.00897523       0.03095596       0.01748481
H       42.78256727     179.29934992      59.80077264  F      -0.00058035       0.00183849       0.00038510
H       44.59993770     180.92063841      60.33809370  F       0.00354380      -0.01759147       0.00668216
H       44.87084879     180.17055208      58.75054872  F      -0.00444085       0.01365263       0.00292750
H       46.46066058     178.74463526      59.77692204  F       0.02449022      -0.00252760       0.01270386
H       45.05528318     176.88563973      61.04485767  F       0.01605724       0.01123859      -0.00976189
H       44.95591521     175.53018921      58.42765640  F      -0.00561296       0.00118320      -0.00055156
H       45.96715977     175.06051401      59.76755166  F       0.00209996       0.00038417      -0.01017359
H       49.25330895     174.43553546      55.84193162  F      -0.00071096      -0.00250742       0.00251098
H       48.16586817     177.02387927      55.03188524  F      -0.00090817       0.00110067      -0.00038405
H       48.55644348     175.67932745      57.75097121  F       0.00007257      -0.00072849       0.00158340
H       47.04674257     175.73865231      56.85538697  F      -0.00181638      -0.00153369       0.00128489
H       49.53373226     178.66460404      54.63767325  F       0.00088128       0.00016708       0.00083109
H       52.23329678     178.65512292      55.37794904  F       0.00003130       0.00017117      -0.00071693
H       50.41910284     181.07236064      54.86628982  F      -0.00096028       0.00071881       0.00055631
H       51.26395973     180.16378530      53.61468181  F      -0.00053408      -0.00054984      -0.00082575
H       52.17748359     181.10559180      54.80160407  F       0.00046296       0.00032930      -0.00022924
H       49.44790902     179.41076487      57.39423684  F      -0.00255102       0.00186295       0.00134329
H       51.26295087     180.92773326      59.17270154  F      -0.00069040       0.00320641       0.00439007
H       48.18861184     180.75592426      59.23410872  F      -0.00439643      -0.00071621       0.00495147
H       49.15729083     181.70927747      60.34804453  F       0.01302437      -0.00567910       0.02823762
H       47.93450466     181.41543478      56.93351857  F      -0.00038288      -0.00028180       0.00103236
H       50.43634600     183.58821431      59.51898406  F      -0.00519809      -0.00340049       0.00687097
H       48.12602373     183.22501658      55.23351848  F       0.00050589      -0.00111361       0.00058692
H       50.77941560     185.27607961      57.76041608  F      -0.00225416      -0.00149230       0.00133520
H       49.12711247     185.16178960      54.68548215  F      -0.00417063      -0.00329305      -0.00066900
H       50.81917349     177.73358897      58.76086638  F      -0.00101734      -0.00347694      -0.00045246
H       51.05821634     177.47254514      61.70837884  F      -0.00087655       0.00090553       0.00003575
H       50.15257337     175.12716372      61.53061736  F      -0.00303859      -0.00199152       0.00043879
H       49.86740218     175.39287381      59.81012346  F      -0.00176968       0.00055634      -0.00219407
H       48.23355430     176.19237130      61.92056337  F       0.00701276       0.01140732      -0.01898334
H       58.63310472     191.29366583      73.26381666  F      -0.00106308      -0.00016841      -0.00144931
H       56.04255118     190.06488121      74.01048985  F      -0.00097506      -0.00636415      -0.00121882
H       55.42383278     192.44560649      74.76899030  F      -0.00192190       0.00185672      -0.00060318
H       57.05856400     192.94559919      74.43701726  F      -0.00011237       0.00245556      -0.00104087
H       58.93539454     191.81055537      75.70638334  F       0.00011921      -0.00022729       0.00034037
H       54.88320217     191.50671285      76.81920433  F      -0.00080218      -0.00110269       0.00026654
H       59.63008939     191.06436994      77.94169485  F      -0.00013403      -0.00024667       0.00001395
H       55.50157442     190.80932673      79.07749656  F      -0.00041037      -0.00058202       0.00007078
H       57.88445829     190.53899065      79.63630453  F      -0.00007752      -0.00020325       0.00012873
H       54.16916291     190.87792976      72.86026107  F      -0.00453352       0.00140863       0.00085343
H       54.84987673     192.49993285      70.55443982  F       0.00294112      -0.00046908      -0.00061753
H       52.93238346     191.68392643      69.38278169  F       0.01064229      -0.01379753      -0.02111064
H       53.58665155     190.25441152      70.14386552  F       0.00884079      -0.06786057       0.01891889
H       53.27958250     195.95865547      72.32027864  F       0.00306551      -0.00296155       0.00259800
H       50.85763476     196.10136590      70.43283491  F       0.00126749       0.00317394       0.00385724
H       51.96291088     197.41435118      70.85392713  F       0.00052588       0.00141909       0.00230340
H       52.37766381     196.18057257      68.53354827  F       0.00334434       0.00729391       0.00334756
H       53.78127230     196.40557158      69.58610401  F       0.00119988       0.00203024       0.00115388
H       53.84562296     194.01238624      69.30481677  F       0.00514671       0.00182595       0.00343728
H       52.07118337     193.87725367      69.24861882  F       0.02690240       0.02147164       0.00754625
H       44.91702531     170.88549202      68.25462880  F       0.00029637       0.00110172       0.00238212
H       42.33254138     170.27032889      66.85017660  F      -0.00025622      -0.00235192      -0.00340078
H       42.68382116     169.83638057      68.52809040  F      -0.00412408       0.00147720       0.00151359
H       43.51852216     169.00512676      67.19776751  F       0.00061836      -0.00397156       0.00281929
H       48.31988634     172.80576322      67.88506500  F      -0.00666778       0.00209327      -0.00644232
H       49.14393600     172.30343253      69.36776102  F      -0.00006529       0.00329517       0.00184445
H       48.67765945     171.09741953      68.16221615  F       0.00017785      -0.00288926       0.00088332
H       50.64923549     189.35051690      61.01119101  F       0.00023674      -0.00254091      -0.00185616
H       52.26105268     189.72464658      58.53680984  F       0.00052606       0.00566481      -0.00018424
H       50.67743107     190.48850232      58.72618093  F      -0.00612384      -0.00425861      -0.00012492
H       50.81268530     188.71707309      58.66834341  F       0.00508888      -0.00476628       0.00020808
H       58.00937181     178.18689109      68.52322499  F       0.00122992       0.00347602      -0.00098019
H       58.62208881     177.01512245      69.69548512  F      -0.00195017      -0.00194561      -0.00212438
H       59.25923695     178.66066883      69.67916279  F       0.00203116      -0.00160756       0.00224954
H       49.27181521     175.35411358      80.57649125  F      -0.00119169      -0.00086333      -0.00033862
H       47.13311387     173.47871624      81.40845648  F      -0.00213658       0.00105735       0.00138894
H       47.99208218     174.52568864      82.54454449  F       0.00270504       0.00047585       0.00136879
H       48.85627162     173.22041950      81.70329030  F      -0.00007285      -0.00202298      -0.00152093
H       45.36691809     175.23367212      73.40380698  F       0.00097475       0.00130780       0.00401696
H       43.66308596     174.86078196      73.10739950  F       0.00314636      -0.00078370      -0.00459997
H       44.17070073     175.49015676      74.67666939  F      -0.00499414      -0.00117541      -0.00050844
H       45.51934361     187.88627332      72.32180994  F       0.00003698      -0.00724539      -0.00340208
H       44.03023106     187.56576109      74.86934322  F      -0.00224431       0.00516423      -0.00007791
H       43.64610614     186.77756551      73.33504769  F       0.00216406      -0.00310422       0.00416507
H       43.33304378     188.51721947      73.54530077  F      -0.00215978      -0.00293633      -0.00481756
H       39.73814377     175.91252723      65.05393179  F       0.00002654      -0.00308836      -0.00561300
H       40.63822723     175.48986522      66.51780358  F      -0.00325179       0.00544394      -0.00040102
H       40.64700473     174.39524234      65.14069266  F       0.00309671      -0.00150281       0.00452292
H       42.71776589     175.64646808      60.82978226  F      -0.00071433      -0.00017498       0.00426911
H       42.17638825     172.72585646      60.57914323  F      -0.00226154       0.00036465      -0.00134728
H       40.91491951     173.96975410      60.57067549  F      -0.00078419       0.00188737       0.00286224
H       41.86319742     173.66890375      62.04586498  F       0.00214446      -0.00144892       0.00086314
H       49.36178284     173.42966101      52.32455468  F       0.00175699      -0.00014865      -0.00036202
H       48.42530119     172.89851290      53.72420502  F      -0.00164466       0.00007834      -0.00111056
H       50.18630478     173.03317233      53.83554772  F      -0.00053536      -0.00097375       0.00201479
H       52.68282892     176.12945218      62.43355287  F       0.00025070      -0.00152082      -0.00645551
H       54.75477092     175.39513940      60.33805117  F       0.00143660       0.00025498       0.00160662
H       54.48891493     174.40334036      61.78256408  F       0.00036132      -0.00108322      -0.00263883
H       55.19397557     176.02843144      61.93095730  F       0.00088494      -0.00302173       0.00170981
H       60.53315190     190.18950850      73.72802416  F       0.00061387       0.00119971       0.00150726
H       60.35618204     188.50638836      73.21979533  F      -0.00059224      -0.00028405      -0.00283900
H       60.38928994     188.90662875      74.93588703  F      -0.00017855      -0.00319952       0.00046826
H       50.88846760     193.40389898      72.33723451  F       0.00523077      -0.00621547       0.00252731
H       49.33923847     195.00637556      74.30584941  F      -0.00350189       0.00105789      -0.00126666
H       49.58858700     193.25262001      74.32036987  F       0.00823310       0.00124160       0.00425354
H       48.47391406     193.98337590      73.14280907  F      -0.00142828      -0.00964404       0.00500696
H       55.95687546     179.06777589      61.56580573  F       0.00018381      -0.00022714      -0.00046721
H       58.83210712     174.32334650      74.31666250  F      -0.00076802       0.00797463       0.00553481
H       51.01919326     179.00559768      65.81612717  F      -0.01494460       0.00294375      -0.01095521
H       44.35510866     180.43560061      62.89596721  F      -0.00187934      -0.02525608      -0.02964657
H       44.20712818     181.96517800      63.10793174  F      -0.05092123      -0.03188376       0.02120160
H       49.47492473     189.74168818      70.12369071  F       0.00397862      -0.04240569       0.04931590
H       48.66687860     188.87554128      69.14210108  F       0.17441336      -0.11139855       0.24816070
H       50.76415677     182.79400911      62.55595471  F      -0.14877908       0.17662335       0.06133265
H       49.86422863     181.73751572      63.30263148  F       0.00755820       0.22686169      -0.08280223
N       51.87500000     188.49000000      66.29100000  F       0.18006269       0.40047840      -0.09798575
C       51.24300000     187.80100000      67.25400000  F       0.96377983      -0.10687212       0.72710947
C       51.87900000     187.57200000      68.49100000  F       1.26903386       1.52306009      -1.48457913
N       53.08500000     188.13200000      68.73400000  F      -0.51988389      -0.74881986       0.70728781
C       53.69200000     188.83900000      67.79400000  F      -1.24625455      -0.19963790      -0.78318154
C       53.07300000     189.03000000      66.56800000  F      -0.64691398      -0.68969419       1.11880255
C       49.97700000     187.08900000      66.95300000  F       0.47967155      -0.44203867       1.33961162
O       49.22000000     186.75300000      67.85200000  F      -0.13625793       0.61385205      -0.19363034
N       49.80900000     186.66500000      65.68700000  F      -0.42135223       0.27587931      -0.18814487
C       48.70400000     185.84800000      65.26000000  F       0.14194508      -0.64903206       0.04980878
C       48.40700000     186.17400000      63.81100000  F      -0.72833335      -0.00202312      -0.30959601
C       47.36200000     185.28400000      63.18300000  F       0.13334441      -0.27442453      -0.69943074
C       46.04900000     185.27100000      63.62900000  F      -0.29426063      -0.71124248      -0.60510147
C       45.09900000     184.46200000      62.98000000  F       0.17907627       0.57784745       0.78956069
C       45.41500000     183.65600000      61.91300000  F       0.78939034       0.20513162      -0.39094447
C       46.71700000     183.67000000      61.42700000  F       0.49494736       0.93074100       0.99299487
C       47.68300000     184.49600000      62.06300000  F      -1.03672005      -0.60691634      -0.09109397
C       49.10200000     184.38700000      65.39000000  F       1.63185096       0.71810270      -1.26846896
O       50.11000000     183.99900000      64.83200000  F       0.14176530       0.33288301       0.02030495
N       48.35800000     183.54000000      66.08000000  F      -1.81031882      -1.03781913       1.06713365
C       48.60800000     182.12100000      66.22200000  F      -0.20008946       0.45139979       0.45351829
C       48.26300000     181.70300000      67.66500000  F       0.19316542      -0.27595769      -0.97673468
C       49.00500000     182.50400000      68.72100000  F       0.11392664       0.19756419       0.34082941
C       50.50000000     182.64600000      68.45100000  F       0.05534525       0.03048997      -0.20941014
C       48.78800000     181.86700000      70.08400000  F      -0.15291701      -0.00158266       0.29128451
B       47.72300000     181.23600000      65.16900000  F      -0.25022334       0.07958015      -0.85447370
O       48.09200000     181.51000000      63.70100000  F      -0.12804102       0.36891042       1.29822748
O       46.24600000     181.62500000      65.24400000  F       1.26405944      -0.36553793       0.89619211
H       51.46890167     186.90785758      69.21917166  T      -0.00074592      -0.00194469       0.00209257
H       54.64588195     189.28633784      68.01467175  T       0.00161791      -0.00108776       0.00280653
H       53.50612539     189.71352198      65.86875255  T       0.00757846       0.01638371      -0.01965568
H       50.53467686     186.83333599      65.00514671  T      -0.00204189      -0.00175253      -0.00271783
H       47.84180816     186.05279219      65.91039666  T      -0.00123280       0.00082664       0.00085123
H       48.08896156     187.21874283      63.73061210  T      -0.00843312       0.00483088       0.00307867
H       49.33458939     186.11788898      63.24005752  T      -0.04109798      -0.00428137       0.02451044
H       45.76897753     185.86937663      64.47789055  T       0.00028987       0.00001035       0.00009462
H       44.08400753     184.47451135      63.34343204  T      -0.00087517      -0.00056827      -0.00308366
H       44.65782269     183.07704093      61.41081561  T      -0.00284797       0.00274261       0.00269209
H       46.99014185     183.07007320      60.57605763  T      -0.00032251       0.00109875      -0.00110607
H       48.69050242     184.49762366      61.69082701  T       0.00767871       0.00364952       0.00389125
H       47.47126809     183.84698682      66.49707401  T       0.00107906      -0.00002204      -0.00122406
H       49.64707477     181.90604035      65.95734309  T       0.00633928      -0.00164139      -0.00045638
H       48.47757688     180.63702918      67.78564258  T       0.00003164      -0.00009629      -0.00008319
H       47.18280118     181.80337585      67.80995185  T       0.00215123      -0.00032046      -0.00031530
H       48.56903666     183.52055273      68.72641388  T      -0.00071278       0.00251035      -0.00021480
H       50.97306524     181.67199693      68.33894222  T      -0.00021144       0.00009528       0.00159386
H       51.00679213     183.16656221      69.26478390  T      -0.00065134       0.00122356      -0.00118045
H       50.68158506     183.20872634      67.53437789  T      -0.00017206      -0.00133985      -0.00061209
H       49.18719082     180.85316971      70.10610320  T       0.00007584       0.00043754      -0.00013800
H       47.72620853     181.80596096      70.32750146  T      -0.00004308      -0.00006273      -0.00028511
H       49.28131022     182.43095528      70.87695582  T      -0.00009781       0.00000160      -0.00035325
H       47.77574253     182.36912355      63.36631058  T       0.00012684       0.01428854      -0.00610027
H       45.97760554     181.98145594      64.38000768  T      -0.01020059       0.01326118       0.00915625
