53

N      51.875000000000000    188.490000000000009     66.290999999999997
C      51.243000000000002    187.800999999999988     67.254000000000005
C      51.878999999999998    187.572000000000003     68.491000000000000
N      53.085000000000001    188.132000000000005     68.733999999999995
C      53.692000000000000    188.838999999999999     67.793999999999997
C      53.073000000000000    189.030000000000001     66.567999999999998
C      49.976999999999997    187.088999999999999     66.953000000000003
O      49.219999999999999    186.752999999999986     67.852000000000004
N      49.808999999999997    186.664999999999992     65.686999999999998
C      48.704000000000001    185.848000000000013     65.260000000000005
C      48.406999999999996    186.174000000000007     63.811000000000000
C      47.362000000000002    185.283999999999992     63.183000000000000
C      46.048999999999999    185.270999999999987     63.628999999999998
C      45.098999999999997    184.461999999999989     62.979999999999997
C      45.414999999999999    183.656000000000006     61.912999999999997
C      46.716999999999999    183.669999999999987     61.427000000000000
C      47.683000000000000    184.496000000000009     62.063000000000002
C      49.101999999999997    184.387000000000000     65.390000000000001
O      50.109999999999999    183.998999999999995     64.831999999999994
N      48.357999999999997    183.539999999999992     66.079999999999998
C      48.607999999999997    182.121000000000009     66.221999999999994
C      48.262999999999998    181.703000000000003     67.665000000000006
C      49.005000000000003    182.503999999999991     68.721000000000004
C      50.500000000000000    182.645999999999987     68.450999999999993
C      48.787999999999997    181.866999999999990     70.084000000000003
B      47.722999999999999    181.235999999999990     65.168999999999997
O      48.091999999999999    181.509999999999991     63.701000000000001
O      46.246000000000002    181.625000000000000     65.244000000000000
H      51.468901671091579    186.907857583861500     69.219171662293419
H      54.645881953213475    189.286337835245519     68.014671749978532
H      53.506125385160367    189.713521980996347     65.868752554346671
H      50.534676856642385    186.833335992803541     65.005146710978110
H      47.841808163967364    186.052792188272690     65.910396657760728
H      48.088961561396012    187.218742828291028     63.730612096304966
H      49.334589385876981    186.117888983593957     63.240057522012570
H      45.768977525547285    185.869376634601139     64.477890546020944
H      44.084007529272576    184.474511347652680     63.343432042491408
H      44.657822685401747    183.077040925901741     61.410815613198906
H      46.990141849403720    183.070073203870578     60.576057628194953
H      48.690502424867340    184.497623657466619     61.690827007348432
H      47.471268087130518    183.846986824751184     66.497074012755874
H      49.647074768237239    181.906040353043920     65.957343094747756
H      48.477576877743822    180.637029184110474     67.785642581626917
H      47.182801179575641    181.803375849024462     67.809951851439806
H      48.569036656268473    183.520552728151699     68.726413880725318
H      50.973065241784894    181.671996925081686     68.338942219431928
H      51.006792127444641    183.166562213399800     69.264783897715432
H      50.681585058154276    183.208726339845384     67.534377886092912
H      49.187190818519959    180.853169710055283     70.106103203839908
H      47.726208530104351    181.805960963421285     70.327501456574424
H      49.281310221150449    182.430955277325808     70.876955817041036
H      47.775742531401576    182.369123548849160     63.366310584577626
H      45.977605543245382    181.981455939518071     64.380007683347984
