533
Properties=species:S:1:pos:R:3:move_mask:L:1:forces:R:3 6V8_MS_C_ASP17=T |=T Arg19=T repaired=T +=T controlled=T bridge=T water=T Asp17=T OD2-H=T tautomer=T charge=-1 energy=-2479.974959419823 stress="0.0 0.0 0.0 0.0 0.0 0.0 0.0 0.0 0.0" pbc="F F F"
N       47.86000000     179.16600000      62.75300000  F       0.02604162      -0.70305088      -0.25375877
C       47.74100000     178.18400000      63.82800000  F      -0.16591838       0.70488154       0.17192753
C       46.89800000     177.01300000      63.45800000  F      -0.67260701       1.03449426      -1.12308766
O       45.92400000     177.16600000      62.74200000  F      -0.02317412      -0.07902528       0.21541324
C       47.11500000     178.90200000      65.03000000  F       0.59699575       0.07537784       0.98864323
O       48.05800000     179.83300000      65.54700000  F      -0.25994967       0.25613012       0.18487630
C       46.75800000     177.97700000      66.20200000  F      -0.18065730      -0.20192637      -0.42441707
N       47.29700000     175.82200000      63.92600000  F       0.64740381      -1.25739475      -0.00814182
C       46.45400000     174.65200000      63.87400000  F       0.22545632      -0.44059695       0.61834209
C       46.46600000     174.00900000      65.26500000  F       1.08246501       1.09556883      -0.55714922
O       47.51200000     173.74100000      65.82500000  F       0.03734532      -0.36819866      -0.29558800
C       46.85700000     173.64600000      62.77200000  F      -0.71310978      -0.05603979      -0.14153742
O       47.03300000     174.32800000      61.52200000  F       0.01804776       0.22088028       0.50768367
C       45.74000000     172.58800000      62.63800000  F       0.45552292       0.13589363      -0.00097417
N       45.27100000     173.88600000      65.86300000  F      -1.08040504      -0.13869371       0.55332077
C       45.10500000     173.16100000      67.09700000  F      -0.36075175      -0.30592304       0.11583385
C       44.05700000     172.10600000      66.86000000  F      -1.50007017       2.09364265      -2.61574881
O       43.14400000     172.33000000      66.03400000  F       1.43736994      -0.47119415       1.52446628
C       44.68600000     174.04700000      68.28800000  F       0.09392449       0.15687722      -0.54476861
O       43.45900000     174.68700000      68.01900000  F      -0.52762384      -0.05863013      -0.02767849
C       45.72600000     175.09400000      68.54400000  F       0.57009352       0.33669007       0.26459421
N       50.41500000     173.24300000      66.68500000  F       0.22746324       0.71706075      -1.04581672
C       51.64600000     173.72200000      66.09000000  F       0.16307036       0.30119865       0.85951187
C       52.22400000     174.79300000      67.03300000  F      -1.79472852      -0.87879924       1.46866541
O       51.71300000     174.99200000      68.14900000  F       0.78347917      -0.12324907      -1.68751955
C       51.44500000     174.21900000      64.66800000  F      -0.50773188       1.38728783      -0.45119572
C       50.85100000     175.67100000      64.62000000  F      -2.01906579      -4.73324483       3.75125641
O       49.89900000     175.90100000      65.33700000  F      -0.25713564      -0.53432036      -0.01833317
O       51.36800000     176.53800000      63.92800000  F       2.86483361       3.77014875      -3.51598943
N       53.29800000     175.45600000      66.58800000  F       0.56978557       0.81018638      -1.17364395
C       53.98000000     176.37900000      67.42500000  F       0.18685944       0.55984707       0.72912816
C       54.42000000     177.68400000      66.77600000  F       1.00360257       0.87780017       1.82924917
O       55.29400000     178.39100000      67.32700000  F      -1.33249472      -1.47405709      -1.42202491
C       55.14400000     175.64800000      68.02800000  F       0.25359716      -0.01383899       0.73880518
O       56.10400000     175.32300000      67.08600000  F       0.33003334      -0.02845745      -0.30301633
N       53.73900000     178.07000000      65.67300000  F       0.08486921      -0.02265259      -0.55654737
C       54.13100000     179.24900000      64.92000000  F      -0.66687834       0.20758890      -0.13920308
C       53.30200000     180.45100000      65.35500000  F      -0.52294439      -2.84597686      -0.06264912
O       52.12100000     180.31100000      65.52100000  F      -0.92153786       0.08557643      -0.02616071
C       53.87800000     179.01400000      63.43500000  F       0.17163754       0.38748404      -0.37081730
C       54.02700000     180.29000000      62.55900000  F      -0.11624478      -0.43522443       0.83260728
C       54.11000000     179.93900000      61.10900000  F      -0.02837361      -0.04700132      -0.57409521
N       55.30700000     179.17700000      60.79000000  F      -0.27652327       0.18950520       0.76332032
C       55.63600000     178.74900000      59.56100000  F       0.91008099      -0.16922448       0.52564587
N       54.89600000     179.02000000      58.51500000  F      -1.04669016       0.19205963      -1.38471999
N       56.79600000     178.10500000      59.36800000  F       0.52067422      -0.36041230       0.10507279
N       53.93000000     181.57900000      65.50300000  F       2.09415104       2.54810177      -0.06314690
C       53.26600000     182.85600000      65.52000000  F      -0.05082742       0.42503909       0.08111102
C       53.69100000     183.73000000      64.34400000  F       2.26338322      -0.50493706       1.18838536
O       54.86600000     183.78000000      63.98800000  F      -0.89063742      -0.55108623      -0.16335482
C       53.60800000     183.58900000      66.80600000  F      -0.28151512       0.13455066      -0.06022887
N       52.76300000     184.56000000      63.88700000  F      -2.12183898       0.62313597      -0.37756683
C       52.95600000     185.45200000      62.79600000  F       0.46266089       0.43802041      -0.69561070
C       52.44100000     186.84600000      63.06900000  F      -0.98881825      -1.20052715       0.59278270
O       51.42100000     187.04100000      63.69000000  F      -0.08392657      -0.16445756      -0.08951856
C       52.35300000     184.90300000      61.47200000  F       0.22701749      -0.88825048       0.35987033
O       51.03100000     184.45400000      61.69800000  F      -0.53138965       0.64968265       0.17030581
C       53.12900000     183.68100000      60.98200000  F       0.32467271       0.29676877      -0.07557730
N       53.14600000     187.82700000      62.51900000  F       1.27904464       1.53520655      -0.52690414
C       52.76100000     189.24900000      62.50900000  F       0.57602014      -0.70123886      -0.47245916
C       52.67800000     189.56500000      61.02800000  F       1.59544392       0.88847265       0.52845445
O       53.69300000     189.79000000      60.39100000  F      -0.07609831      -0.31114427       0.22039851
C       53.84300000     190.08700000      63.16900000  F      -0.25703746       0.00942266       0.14201496
N       56.06200000     178.77600000      70.10600000  F      -0.79164619       0.72273556      -1.06188937
C       55.01900000     179.19100000      70.99100000  F      -0.89087820      -0.86857256       0.07527072
C       54.41400000     177.93400000      71.61200000  F      -0.13058530      -0.65879398      -2.19891545
O       54.12100000     176.98500000      70.87400000  F       0.42011538       1.00436895       0.82454233
C       53.88000000     179.91700000      70.23400000  F       0.46428928       0.12991561       0.20061969
C       52.80800000     180.37200000      71.19200000  F      -0.46958725      -0.08622123       0.33136175
C       54.42500000     181.11400000      69.49900000  F       0.18592797       0.16070435      -0.37558083
N       54.14500000     177.97100000      72.92100000  F      -0.14704900      -0.14307488       1.52353536
C       53.36600000     176.92500000      73.57300000  F      -0.71807965       0.34376108      -0.23576089
C       51.87300000     177.28800000      73.49500000  F       2.57944485      -0.35718690       0.25011299
O       51.45600000     178.15600000      74.18100000  F      -0.84352341       1.94770166       1.46725701
C       53.75900000     176.74600000      75.01900000  F       0.10558883      -0.03036750       0.20405888
C       55.21400000     176.33700000      75.18500000  F       0.23282074      -0.32883508      -0.13142883
C       55.51700000     174.96900000      74.53300000  F      -0.10428202      -0.10522282       0.48722081
C       56.83900000     174.31600000      75.00400000  F      -0.33743162       0.38794797      -0.38798305
N       57.89700000     174.64600000      74.01500000  F       0.31451640      -0.00219256       0.01989929
N       51.13400000     176.62500000      72.64300000  F      -1.42956859      -1.87170966      -1.81277016
C       49.71600000     176.90100000      72.43200000  F      -0.35537138       0.20434782      -0.13756782
C       48.77200000     176.04900000      73.26900000  F      -3.31494100       2.15853364      -0.89871225
O       47.52800000     176.28000000      73.26500000  F       2.83003639      -0.53318261      -0.22061806
C       49.37100000     176.78000000      70.95000000  F      -0.83847234      -0.64825932       0.51789047
C       50.18100000     177.65300000      70.07500000  F       0.74333946       0.64462543       0.11795964
C       49.72600000     177.66300000      68.64600000  F      -0.02297988       0.02580619      -0.58503550
C       50.62200000     178.54800000      67.79200000  F      -0.18386330      -0.09610100      -1.00345650
N       50.30600000     178.48400000      66.33800000  F       0.48063048      -0.00671383       1.13440719
N       49.31500000     175.10600000      74.01100000  F       1.29692590      -1.72526763       1.43430171
C       48.58100000     174.35100000      75.03000000  F      -0.25113704       0.14495461      -0.31735601
C       48.87400000     174.86500000      76.41100000  F      -0.32732393       0.39027600      -1.86817587
O       49.97800000     174.85800000      76.83600000  F       2.47577619      -0.51054714       0.80359100
C       48.86300000     172.86200000      74.93600000  F      -0.31117555      -0.31344763      -0.31577236
C       48.00700000     172.11800000      75.94000000  F       0.00064053      -0.22997560       0.39422986
C       48.53800000     172.35300000      73.53300000  F       0.22448750       0.05560656      -0.12112096
N       47.88300000     175.43300000      77.07900000  F      -1.72900960       0.80993291       1.62426282
C       48.07500000     175.99100000      78.43700000  F      -1.25292200      -0.86615205       0.03438983
C       47.60000000     174.96900000      79.48700000  F      -2.81105009       0.43019610      -2.57171636
O       46.50400000     174.40000000      79.36000000  F       1.51765112       0.58649788       0.02118182
C       47.23000000     177.28900000      78.56000000  F       1.06448418      -0.45363887       0.48964888
C       47.92700000     178.30100000      77.68600000  F       0.04769134       0.03453152      -0.58624872
C       47.16900000     177.86500000      79.97500000  F      -0.21465608      -0.41012871       0.21452833
C       46.91300000     179.26200000      77.19800000  F      -0.38857008       0.84126810      -0.10133980
N       45.06900000     177.49700000      72.37500000  F       1.98313320       1.09206355      -1.34792103
C       45.08700000     178.88400000      71.87400000  F       0.80704996      -0.43790849       0.22289842
C       45.16900000     178.92200000      70.35700000  F       3.18071856      -1.61225638       0.19605432
O       46.09600000     178.35500000      69.73900000  F      -1.55117654       0.62650159       1.05453308
C       46.33400000     179.63700000      72.44600000  F      -0.67207999       0.01485591      -0.51588476
C       46.39300000     179.61300000      73.94600000  F       0.08424954      -0.23695622       0.38793777
S       47.39400000     180.86300000      74.73100000  F       0.69462615       0.10440306      -0.56174998
C       49.08400000     180.44300000      74.22900000  F      -0.75434088      -0.02321278       0.08232545
N       44.31000000     179.72300000      69.76300000  F      -1.64462805       1.27191993      -0.61227673
C       44.37900000     180.09100000      68.37300000  F      -0.72500664       0.66313398      -0.09974013
C       43.70300000     181.47000000      68.24700000  F      -0.14228477      -0.91598025       1.47223029
O       42.76100000     181.74200000      68.96300000  F      -0.16566844      -0.24951552      -0.15718511
C       43.61800000     179.08600000      67.55700000  F       0.04239288      -0.28087163      -0.32035078
N       44.21300000     182.35000000      67.39100000  F       0.57975644       1.15522751      -1.77529167
C       43.68400000     183.70300000      67.15500000  F       0.04789009      -0.92146843       0.09333733
C       44.74000000     184.66900000      67.54400000  F       1.91439067      -2.21769596      -0.57505349
O       45.90700000     184.42800000      67.24000000  F      -1.11411149       0.76978777      -0.12909955
N       44.35800000     185.66900000      68.31100000  F      -1.87910691       1.64898082       0.73286513
C       45.21700000     186.65900000      68.81200000  F       1.02689448       0.12205311       0.59791919
C       46.03400000     186.08700000      69.94800000  F      -1.39354456       0.25289775       0.15926159
O       45.50900000     185.57800000      70.91900000  F      -0.26172233       0.04902124      -0.33344090
N       47.35700000     186.20700000      69.84900000  F       1.70469651       0.01248865       0.03595790
C       48.24700000     185.66100000      70.87300000  F       0.84167517       0.61640407       0.21693858
C       48.00300000     186.30600000      72.24300000  F       0.17121452      -2.52819569       0.76237580
O       47.89400000     185.60300000      73.25900000  F       0.19575742       0.61855015      -1.42790719
C       49.74500000     185.87000000      70.46700000  F      -0.92441508      -0.21450330       0.17337578
N       47.99700000     187.63100000      72.31600000  F      -0.31967444       1.40056130       0.25764266
C       47.79000000     188.29000000      73.60400000  F      -1.06377267      -0.15609704       0.15733220
C       46.37300000     187.97100000      74.17700000  F       2.02373328      -0.49736064       0.56402404
O       46.25200000     187.68900000      75.35200000  F       0.02051321       0.44979135       0.15452092
C       47.94400000     189.77600000      73.45900000  F       0.22487747       0.33770907       0.03922738
N       41.67600000     177.26100000      64.19100000  F       1.34621243       1.43860249      -0.57350298
C       42.83500000     178.06900000      63.66600000  F      -1.22406917      -1.34159726      -0.31737913
C       42.79500000     178.05500000      62.14600000  F      -3.27255589      -3.04487226       0.33271292
O       41.98100000     177.33200000      61.51700000  F       1.31324212       1.63794049       1.38600465
N       43.70000000     178.80000000      61.55400000  F       2.95401335       1.72380677      -0.60714032
C       43.77700000     178.96000000      60.13300000  F      -1.14709171      -0.53804724      -0.55277266
C       44.07100000     177.67100000      59.40100000  F      -1.45007716       0.50325232      -1.66984871
O       43.68700000     177.52300000      58.23400000  F       0.61169759       0.25363196       1.30042127
C       44.80300000     179.97300000      59.82800000  F       1.64678797      -0.02627189      -0.24997171
O       46.08600000     179.49100000      60.29100000  F      -0.77442106       1.04890876       0.21454459
N       44.71300000     176.72000000      60.08000000  F       0.57078907      -1.36295757       0.85973370
C       44.95800000     175.39500000      59.51400000  F       0.27233645      -0.02836566      -0.49309677
C       43.97000000     174.30600000      59.82900000  F       0.64383057      -0.93498271      -1.27549680
O       44.14200000     173.16500000      59.37800000  F      -0.11429732       1.30753023       0.82213122
N       49.08300000     175.18400000      55.16800000  F       0.16892748      -0.31404560       1.64674476
C       48.77300000     176.46600000      55.76000000  F       0.13614226       0.16828195       0.28946423
C       50.03300000     177.26300000      56.05900000  F      -0.75432046      -1.04631022       1.00301709
O       50.77800000     176.91400000      56.95100000  F       0.03568176      -0.19954540      -0.28264793
C       47.97300000     176.28200000      57.05300000  F      -0.31323876       0.81861375       0.24976372
C       47.64800000     177.61700000      57.74200000  F       0.23478062       1.04362311       0.93869095
O       47.64400000     178.66700000      57.04600000  F      -0.09387748      -1.45378275       0.75877586
O       47.47400000     177.60000000      58.99700000  F       0.13173157      -0.30024235      -2.60163545
N       50.18500000     178.39700000      55.37800000  F       0.57230128       1.41058007      -0.77549754
C       51.34500000     179.27200000      55.58400000  F       0.23261542       0.28621332       0.67496953
C       51.47100000     179.75500000      57.04700000  F       3.07721012      -0.37637633      -0.66096134
O       52.59100000     180.04300000      57.53400000  F      -2.42600752      -0.22792193      -1.13592856
C       51.30300000     180.47000000      54.66000000  F       0.05320739      -0.00822069      -0.04723728
N       50.33800000     179.82100000      57.73300000  F      -1.16066746       0.19092700       1.12807829
C       50.34100000     180.33300000      59.08900000  F      -0.74754122       0.42521650       0.66878321
C       50.44500000     179.24900000      60.14900000  F      -0.48406494       2.08874070       1.86981699
O       50.31300000     179.56900000      61.34700000  F       0.15137775      -0.75141390      -1.95790469
C       49.12600000     181.31500000      59.32700000  F       0.91113439      -1.65448877       0.40361620
C       49.21100000     182.37300000      58.33900000  F      -1.47569094      -0.27399864      -0.76907660
C       48.53100000     182.29000000      57.13500000  F       0.01066281       0.43997165      -0.90278886
C       49.95400000     183.46800000      58.56100000  F       1.48011171       1.50107619       0.37074013
C       48.65500000     183.29900000      56.16700000  F      -1.20662702      -2.31078377       0.57281628
C       50.14300000     184.42600000      57.58500000  F       0.25643933      -0.03279784       1.44782793
C       49.46900000     184.34700000      56.40300000  F       0.64218357       0.93564805      -0.52657834
O       49.67000000     185.32700000      55.48700000  F       0.04602652       0.72267517      -0.71302614
N       50.74300000     178.00900000      59.76100000  F       0.07811544      -1.32829567      -0.35871434
C       51.02000000     176.97300000      60.72600000  F       0.50755542      -0.65902925      -0.32472915
C       52.40300000     176.36000000      60.41500000  F       0.23996181       0.24322353      -4.69726181
O       52.83300000     176.22500000      59.18500000  F      -1.63570676       0.43152186       4.81131704
C       49.91600000     175.89400000      60.78300000  F      -0.46368619       0.52642983      -0.03448991
O       48.59300000     176.43000000      61.02500000  F       1.05633659      -0.25697257       0.08174798
N       58.01900000     190.54800000      73.59500000  F      -1.15198720       2.86965629      -0.75059819
C       56.60800000     190.95700000      73.70700000  F       0.35786540       0.27461123       0.51830403
C       56.06900000     191.48400000      72.40000000  F       0.99087459      -0.42215152       0.96166791
O       56.75700000     192.12400000      71.66200000  F       1.07619293       0.77942464      -0.75486354
C       56.46100000     192.09100000      74.76800000  F      -0.21103726      -0.24438991      -0.87474163
C       56.86500000     191.70400000      76.13100000  F       0.27727513      -0.01466016      -0.13716013
C       58.19500000     191.58900000      76.45600000  F       0.49559108       0.05227643      -0.29115519
C       55.92500000     191.41800000      77.08200000  F      -0.99491308       0.04055851       0.09054291
C       58.58700000     191.17200000      77.69800000  F      -0.93363869      -0.37468294       1.09690137
C       56.26300000     191.02800000      78.34700000  F       0.29018342      -0.24374852       0.20633443
C       57.59400000     190.87200000      78.65400000  F       0.99283274       0.28581648      -0.46089158
N       54.78400000     191.26700000      72.14300000  F      -2.23581756      -0.60740749       0.22212371
C       54.06500000     192.08500000      71.20700000  F      -0.48750091       0.71700639       0.05351330
C       53.39300000     193.30200000      71.92900000  F       1.58152473      -1.83977263       0.41972512
O       53.42100000     193.43500000      73.14300000  F       0.22861146      -0.51981240      -0.43272426
C       53.11400000     191.21700000      70.35300000  F      -0.35131183       0.26501282       0.40903211
C       51.76300000     190.96700000      70.99500000  F      -1.67021022      -0.71365755      -0.01287844
O       51.42500000     191.44700000      72.08100000  F       0.84407196       0.37910654      -0.03571271
O       50.94700000     190.26100000      70.36900000  F       2.09255592       0.65585831      -0.11846711
N       52.85200000     194.26100000      71.16400000  F      -0.99198229       0.69188391       0.32784327
C       52.41200000     195.50300000      71.82400000  F      -0.99901155       0.38609834       0.18181159
C       51.27800000     195.35200000      72.84000000  F       1.93881855       1.80237197       0.22395287
O       51.11000000     196.21600000      73.68500000  F      -0.04529080      -0.01337438      -0.37697868
C       51.90800000     196.33900000      70.63800000  F      -0.06610647       1.16860958       0.85900188
C       52.79800000     195.92400000      69.51600000  F      -0.00347987      -0.13268669      -1.45742557
C       52.91000000     194.41600000      69.70300000  F       0.56650709      -0.37301091      -0.38112510
N       44.18000000     170.99300000      67.55100000  F      -0.49168213      -2.46361938       1.26094909
C       43.11900000     169.96000000      67.53700000  F       0.52246985       0.51759948      -0.07300616
C       49.04800000     172.11100000      68.30100000  F       1.19245595      -0.20150053      -0.30997850
C       50.41400000     172.27400000      67.61400000  F       0.98599968      -2.62875988       1.87160965
O       51.40800000     171.53300000      67.90800000  F      -2.69453006       2.10847337      -0.77756109
N       51.47700000     189.61000000      60.46800000  F      -2.17929104      -0.26566196      -0.99586171
C       51.28700000     189.63400000      59.01600000  F       0.24614072       0.10036693       0.38264173
C       58.36100000     178.06100000      69.54600000  F      -0.63267705       0.36501928       0.43523594
C       57.29000000     178.48500000      70.54800000  F       1.30568560      -1.23319143      -1.37536758
O       57.54400000     178.47200000      71.71200000  F       0.68120891       0.27102907       1.83936318
N       48.37100000     174.86500000      80.53200000  F       2.03034725      -0.14323743       1.97878367
C       48.08100000     173.98100000      81.60400000  F      -0.26720769      -0.39199359       0.35557222
C       44.34400000     175.54900000      73.60400000  F      -0.25239562       0.85239487      -0.01178778
C       44.10400000     176.97400000      73.11200000  F      -2.08076424      -1.27627035       0.94444602
O       43.04800000     177.55200000      73.33400000  F       0.54259510      -0.27418220       0.11061229
N       45.34300000     187.98800000      73.32800000  F      -0.96794653       0.27893477      -1.11192887
C       44.01100000     187.70000000      73.78800000  F      -0.02616402      -0.20174974      -0.01897245
C       40.64600000     175.44500000      65.43000000  F       0.84889912       0.01566186      -0.21229678
C       41.89000000     176.12400000      64.89200000  F       1.98185734      -1.97698719       1.32014937
O       43.04500000     175.65300000      65.14300000  F      -3.01248161       1.36387164      -0.62939465
N       42.87500000     174.66500000      60.52700000  F      -0.53011644       0.35331095       0.67451386
C       41.90000000     173.71000000      60.95700000  F      -0.08480722      -0.20270343      -0.00415283
C       49.29000000     173.47900000      53.40900000  F       0.05479948       1.19569259       0.31617736
C       49.14800000     174.95100000      53.85500000  F      -0.07673582      -1.92840605      -1.11917062
O       49.04600000     175.81700000      53.03200000  F      -0.05016692       0.79551659      -0.71663521
N       53.10200000     176.00200000      61.50000000  F       1.58680281      -0.76902801       0.59557676
C       54.47400000     175.41800000      61.39000000  F      -0.99827732       0.44898346       0.00992182
C       60.05000000     189.24300000      73.95900000  F      -1.63189186      -0.05487818       0.07294892
C       58.49000000     189.38000000      73.95400000  F       2.99856520      -1.77343763      -0.01913630
O       57.80600000     188.43100000      74.22400000  F      -0.53234539      -0.64546569       0.56767053
N       50.51300000     194.28900000      72.73400000  F      -1.86919038      -2.02269945       0.21042419
C       49.41200000     194.11700000      73.68000000  F       0.33425224      -0.10325747      -0.24753801
O       44.57000000     181.16200000      63.51200000  F      -0.34403866      -0.11213829      -0.37691229
O       48.60300000     189.36900000      69.98000000  F      -1.09289336      -0.22866391       0.14927978
O       50.73300000     181.88100000      62.89200000  F       0.19215608      -0.01234062       0.06767535
N       49.54300000     186.95500000      65.83900000  F       1.19408966      -1.68872053      -2.10403663
C       53.00100000     189.76900000      66.93800000  F      -0.23962545      -1.64839283       0.07758976
C       50.61700000     188.90900000      66.87800000  F       1.52424775      -2.06362967      -0.03280301
C       51.17400000     191.17200000      66.78900000  F      -2.37653725       1.59661518       0.28844844
C       52.52800000     191.00800000      66.84900000  F       0.37256207       1.50224703      -0.17204955
O       50.39900000     184.24800000      65.60200000  F      -1.57701563       0.34954404       0.31708128
C       49.21100000     184.48700000      65.88300000  F       3.57960995       1.16603887      -1.41095324
N       48.40000000     183.55500000      66.32900000  F      -1.88202120      -1.57064636       0.65728156
C       48.71100000     182.15800000      66.51800000  F      -0.25452249      -0.10723408       0.17243241
B       47.86200000     181.26700000      65.38200000  F      -1.30988850       0.03227101      -1.22311780
O       48.09300000     181.50400000      63.85900000  F       0.32468125       0.84368479       1.26717015
O       46.36200000     181.60000000      65.51900000  F       1.22929272      -0.00254409       0.59125966
C       48.29600000     181.75500000      67.95500000  F      -0.30502685      -0.78406405      -0.98704711
C       48.94900000     182.52600000      69.07200000  F       0.65842413       0.55417266       0.04630388
C       50.44600000     182.57900000      68.87100000  F       0.53814518       0.30973276      -0.32144496
C       48.71900000     181.94600000      70.44400000  F      -0.64998326      -0.29489164       0.40564904
C       48.63200000     185.85900000      65.65200000  F      -0.67435374      -0.10504344       0.45483009
C       49.57600000     187.79600000      66.85700000  F       1.54848096       2.40288048      -0.06220948
O       48.72800000     187.85600000      67.68300000  F      -1.98207014      -0.56830014       1.92693962
C       52.02900000     188.76800000      66.95100000  F      -0.49119543      -1.88177274       0.01311308
Cl      52.47400000     187.12900000      67.11200000  F       0.65802271      -0.37537102       0.06251967
Cl      50.42800000     192.79300000      66.85900000  F       0.70219712      -0.21357550      -0.05554266
C       50.21800000     190.16200000      66.82700000  F      -0.34941429       2.54283698      -0.27599884
H       48.22246668     178.72853603      61.91318443  T      -0.01593094      -0.00716430      -0.00357178
H       48.50198772     179.90124745      63.02616307  T       0.01469614      -0.01078250      -0.00922608
H       48.73785584     177.82450954      64.11480041  T       0.00485612      -0.00343530      -0.00019926
H       46.23206421     179.45608483      64.68814634  T      -0.00419683       0.00283900      -0.00245663
H       47.61085190     177.35178532      66.45999484  T       0.00027387       0.00293132       0.00167029
H       45.93011979     177.31605029      65.94505356  T       0.00287614      -0.00236250      -0.00194560
H       46.49085665     178.54820830      67.08835542  T      -0.00238337      -0.00001361      -0.00234745
H       48.12542779     175.73847647      64.53036065  T      -0.00232487       0.00028774      -0.00203766
H       45.43863353     175.01172805      63.65910157  T      -0.00473874       0.00061566      -0.00420883
H       47.81950011     173.18277158      63.03333678  T       0.00513829      -0.00157522       0.00285215
H       46.60274103     175.20828215      61.63936659  T      -0.00458984      -0.00654464      -0.00160074
H       44.80294971     173.06591750      62.35781399  T      -0.00187624       0.00100293      -0.00053305
H       45.57981489     172.05377385      63.57439571  T      -0.00051891      -0.00076813       0.00239686
H       45.98332211     171.86660044      61.85955446  T       0.00048560      -0.00117506      -0.00193355
H       44.42059599     174.31139041      65.47500541  T       0.00111073      -0.00076897       0.00105495
H       46.06218857     172.67269332      67.31921231  T       0.00452530      -0.00170583       0.00215675
H       44.52333685     173.42459097      69.18275884  T      -0.00016863      -0.00357258       0.00504593
H       43.39992303     174.96157061      67.06791778  T      -0.00151894       0.00278901       0.00014426
H       45.89874446     175.67520322      67.64011750  T      -0.00012241       0.00192380      -0.00027137
H       46.68000582     174.65717690      68.84122055  T       0.00242247      -0.00048555      -0.00106537
H       45.40549830     175.78794134      69.32250889  T       0.00026107       0.00088172       0.00270020
H       49.54269371     173.71145572      66.39508569  T       0.00124325      -0.00051296       0.00034227
H       52.33339830     172.86132559      66.09976034  T       0.00463579      -0.00444224      -0.00274267
H       52.39141257     174.22667969      64.12326259  T       0.00250478      -0.00197441      -0.00226178
H       50.77299993     173.54503527      64.13303660  T      -0.00045913      -0.00245639      -0.00319977
H       53.81687433     175.15261879      65.76103419  T       0.00226632       0.00023120       0.00403367
H       53.27627979     176.63636155      68.23468757  T      -0.00435229       0.00306456       0.00413196
H       55.61391904     176.24581377      68.82257689  T       0.00220386       0.00195687       0.00518627
H       54.80666965     174.70737863      68.48346095  T      -0.00150942      -0.00396363       0.00362619
H       56.42200807     176.14604936      66.65379358  T       0.00075714      -0.00036604      -0.00025542
H       52.94832610     177.52342631      65.30859328  T       0.00008904       0.00073790      -0.00160871
H       55.19329591     179.44600277      65.11822940  T       0.00500362       0.00096873       0.00120453
H       54.54207885     178.22360737      63.07486930  T      -0.00014936      -0.00401455      -0.00145906
H       52.86247441     178.62436145      63.31266810  T      -0.00225904      -0.00442655      -0.00062816
H       53.17782593     180.95573046      62.76061313  T      -0.00186527       0.00432302       0.00072521
H       54.92381546     180.84263240      62.85845882  T       0.00206987       0.00325187       0.00206346
H       53.24185707     179.34014227      60.80895039  T      -0.00421966      -0.00084060      -0.00304068
H       54.10327735     180.83682464      60.48057053  T      -0.00238014       0.00314831      -0.00365491
H       55.12850202     178.65123651      57.60680458  T      -0.00030252       0.00057666       0.00022165
H       53.97053149     179.42703916      58.49804958  T       0.00099552       0.00006905       0.00050086
H       57.11004979     177.79571296      58.46079889  T       0.00118737       0.00038186       0.00091507
H       57.45555987     177.89536489      60.10284743  T       0.00072023       0.00031360      -0.00141069
H       54.92375958     181.65821185      65.27884678  T      -0.00181020       0.00098414      -0.00267219
H       52.18037528     182.66629825      65.45184168  T      -0.00551068      -0.00164964      -0.00161226
H       54.68719352     183.69955752      66.90272559  T       0.00204179       0.00134498      -0.00099168
H       53.23424295     183.05413453      67.67447117  T       0.00105316      -0.00099885      -0.00008320
H       53.16419442     184.58647759      66.81008533  T      -0.00220786       0.00193930       0.00082502
H       51.84623964     184.60883393      64.35512407  T       0.00219013       0.00370099      -0.00134268
H       54.04744892     185.52753856      62.67788685  T       0.00565555       0.00030918      -0.00118251
H       52.33076483     185.69402866      60.70577657  T      -0.00457985       0.00607695      -0.00397036
H       50.60385724     185.10895952      62.29062283  T      -0.02393515      -0.02191753      -0.03183838
H       53.11124982     182.91276558      61.75094641  T      -0.00123834      -0.00121136       0.00030946
H       54.17115259     183.92422915      60.77666548  T       0.00227599       0.00054359       0.00037436
H       52.68608951     183.26262460      60.07988111  T       0.00033073      -0.00025200      -0.00267949
H       53.96657108     187.62803224      61.94434544  T      -0.00034402       0.00137904       0.00092859
H       51.78533066     189.35544802      63.00440515  T      -0.00427794       0.00027440       0.00470412
H       54.78428816     189.96391870      62.63471766  T       0.00218023      -0.00052978      -0.00056684
H       53.99595542     189.77843676      64.20303471  T      -0.00020912      -0.00039682       0.00234772
H       53.58670590     191.14622000      63.15536348  T      -0.00009261       0.00243427      -0.00082828
H       55.79198789     178.63130047      69.12257592  T       0.00020864       0.00081040       0.00157538
H       55.45199527     179.83407116      71.76665455  T       0.00231012       0.00223559       0.00385018
H       53.45700610     179.19815621      69.51246914  T      -0.00235106      -0.00390784      -0.00385700
H       53.21101720     181.07639249      71.91987737  T      -0.00001265       0.00173937       0.00207155
H       52.38805040     179.53333009      71.74989942  T      -0.00164084      -0.00155757       0.00195871
H       51.98712249     180.86808225      70.67467376  T      -0.00188214       0.00089504      -0.00017313
H       54.89567237     181.81536022      70.18820948  T       0.00096055       0.00220248       0.00109355
H       53.62544811     181.63956592      68.98127658  T      -0.00013525       0.00043813      -0.00124679
H       55.17159278     180.82393128      68.75833976  T       0.00230807       0.00008996      -0.00148731
H       54.24934532     178.83219171      73.46076583  T      -0.00322800      -0.00158105      -0.00020091
H       53.53454325     175.99807996      73.00905779  T       0.00218774      -0.00498137      -0.00141914
H       53.10072071     176.00306447      75.48474301  T      -0.00400704      -0.00049715       0.00345893
H       53.55697606     177.68561741      75.54594250  T      -0.00247086       0.00220939       0.00396307
H       55.87157178     177.10184540      74.75588250  T       0.00329022       0.00356533       0.00084013
H       55.46723378     176.29336344      76.25126049  T       0.00327515       0.00216538       0.00375754
H       54.68183663     174.29352858      74.75704330  T      -0.00309843      -0.00326730      -0.00189151
H       55.52141042     175.06363193      73.44180853  T      -0.00381308      -0.00144485      -0.00462594
H       57.11254751     174.67432399      76.00295633  T       0.00068886       0.00040229       0.00381320
H       56.74123462     173.22611156      75.08659184  T       0.00047447      -0.00419193       0.00173135
H       57.95135499     175.66495078      73.85520200  T      -0.00154312      -0.00575255      -0.00539983
H       57.69429085     174.21447089      73.09885534  T       0.00208724       0.00147812      -0.00145185
H       51.53997061     175.91618196      72.02872188  T      -0.00145306       0.00027314       0.00061432
H       49.56624153     177.94308353      72.74594792  T      -0.00070408       0.00467497       0.00212223
H       49.48453164     175.73318045      70.64469216  T      -0.00245554      -0.00447240      -0.00101275
H       48.30409789     177.00346708      70.81657596  T      -0.00538069      -0.00207370      -0.00129785
H       50.16532738     178.67870044      70.46665024  T       0.00262626       0.00400410       0.00183792
H       51.23621159     177.35043020      70.12850362  T       0.00601333       0.00162621       0.00100116
H       49.73661564     176.64171070      68.24379138  T      -0.00208765      -0.00427972      -0.00156161
H       48.68459512     177.99906715      68.57687753  T      -0.00453242      -0.00000381      -0.00135658
H       50.58426943     179.58813113      68.12713465  T       0.00407185       0.00324721       0.00170914
H       51.66805068     178.24509331      67.91071253  T       0.00423058       0.00046198       0.00144417
H       49.49712190     179.03788115      66.08686920  T       0.00347399       0.00335129      -0.00218747
H       50.13526431     177.52264318      66.05595397  T      -0.00411677       0.00122739       0.00040112
H       50.33062436     175.09757959      74.16369078  T      -0.00239659      -0.00038168      -0.00004137
H       47.51575749     174.51612889      74.81816572  T      -0.00516850       0.00041744      -0.00077768
H       49.93143647     172.70610788      75.15794781  T       0.00574170      -0.00087864       0.00090924
H       46.94706608     172.27887939      75.74228099  T      -0.00254649      -0.00005806       0.00016570
H       48.20296868     172.45783156      76.95836838  T      -0.00000415       0.00036598       0.00286097
H       48.19046632     171.04342028      75.90471656  T      -0.00005775      -0.00266798       0.00037935
H       47.48554256     172.51171746      73.29853237  T      -0.00217900       0.00035075      -0.00106675
H       48.74460780     171.28681069      73.43427155  T       0.00021172      -0.00248728      -0.00050726
H       49.12233882     172.88191950      72.77922555  T       0.00118999       0.00095515      -0.00207622
H       46.91259746     175.35969060      76.76702776  T       0.00067405      -0.00037716       0.00277124
H       49.14163166     176.20235997      78.57383004  T       0.00468152       0.00040582       0.00065839
H       46.21755490     177.06857755      78.18844950  T      -0.00593119      -0.00093829      -0.00066053
H       48.73795177     178.79466129      78.23771098  T       0.00425284       0.00167729       0.00154394
H       48.41254852     177.79982898      76.83554426  T       0.00349519      -0.00242855      -0.00287707
H       48.17045468     178.06262439      80.35673061  T       0.00158557       0.00136834       0.00138466
H       46.69407923     177.16150036      80.65972647  T      -0.00040773      -0.00122779       0.00243713
H       46.60668370     178.79765650      80.01485401  T      -0.00173056       0.00155020       0.00118173
H       46.33958682     179.69423287      78.02029110  T      -0.00083733       0.00339847       0.00029764
H       46.19326183     178.78804849      76.52781843  T      -0.00323071      -0.00048081       0.00013319
H       47.37734150     180.10010254      76.67844334  T      -0.00016791       0.00172367      -0.00237212
H       46.00389180     177.07488487      72.41843002  T      -0.00132565       0.00269898       0.00092373
H       44.15583229     179.35672599      72.21308701  T      -0.00436976       0.00246408       0.00122715
H       46.29990030     180.67528612      72.09930807  T       0.00174264       0.00301730      -0.00266928
H       47.24230330     179.20651583      72.01302877  T       0.00345535       0.00093323      -0.00342723
H       46.73425050     178.63171663      74.28639382  T      -0.00045003      -0.00296321       0.00510945
H       45.38318738     179.73764645      74.34616372  T      -0.00321125      -0.00239297       0.00425024
H       49.78065583     181.16505627      74.64520786  T       0.00114054       0.00135996       0.00087390
H       49.17095209     180.46311226      73.14683445  T      -0.00018187       0.00003696      -0.00179489
H       49.35971272     179.45295917      74.58436839  T       0.00036045      -0.00194846       0.00090860
H       43.58903521     180.23458393      70.28789792  T       0.00064888      -0.00064014      -0.00144697
H       45.43582433     180.15956123      68.08186818  T       0.00475657      -0.00069075      -0.00194906
H       42.57265248     179.07264698      67.86410514  T      -0.00208096      -0.00098550       0.00092571
H       44.01642714     178.08166565      67.70486135  T       0.00113705      -0.00223167      -0.00030452
H       43.65480275     179.32297304      66.49347950  T      -0.00074413       0.00095956      -0.00235688
H       45.02905167     182.11420008      66.81169941  T      -0.00106841       0.00078095       0.00130555
H       42.78490039     183.82652618      67.76499570  T      -0.00326275       0.00065748       0.00224073
H       43.40799807     183.82373740      66.10407300  T      -0.00105376       0.00038994      -0.00361534
H       43.41334279     185.68322275      68.70905314  T       0.00230946      -0.00071995       0.00046328
H       44.65777411     187.53569919      69.15350088  T      -0.00188763       0.00380477       0.00052441
H       45.88096938     186.98299805      68.00416138  T       0.00240440       0.00179665      -0.00283040
H       47.80514744     186.71371480      69.06900701  T      -0.00035281      -0.00059525       0.00106680
H       48.00214186     184.59568141      70.97054253  T      -0.00113664      -0.00455602      -0.00003855
H       49.97686701     186.93316451      70.43126349  T      -0.00004446       0.00211490      -0.00069402
H       49.94498788     185.46213874      69.47742351  T      -0.00002117      -0.00107485      -0.00180805
H       50.41794323     185.40264879      71.18408374  T       0.00094149      -0.00044209       0.00218046
H       48.14128343     188.22325470      71.48590621  T      -0.00011440      -0.00091462       0.00139114
H       48.52924747     187.87180250      74.30315026  T       0.00360671      -0.00189303       0.00366109
H       47.20101609     190.16567845      72.76362166  T      -0.00135850       0.00127215      -0.00147094
H       48.92812432     190.03245240      73.06299668  T       0.00250994       0.00106297      -0.00121767
H       47.81093141     190.28531078      74.41377836  T      -0.00035832       0.00140149       0.00219416
H       40.75486181     177.51047353      63.82609641  T       0.00352630       0.00175811       0.00107430
H       42.80872523     179.08531506      64.06325895  T       0.00062607       0.00289169       0.00116510
H       43.75479160     177.57650136      63.99781294  T       0.00347913      -0.00227257       0.00071877
H       44.68598665     178.75029722      61.90276438  T      -0.02265225       0.00404094      -0.00520745
H       42.78260587     179.29915843      59.80092372  T      -0.00554564       0.00234839      -0.00263504
H       44.59926799     180.91875932      60.34115219  T       0.00050321       0.00367749       0.00354365
H       44.86983681     180.17416530      58.75133323  T      -0.00297858       0.00571426      -0.00496945
H       46.47080713     178.75491283      59.77063246  T      -0.00294973      -0.04288022      -0.00897746
H       45.06162255     176.88928264      61.04177289  T       0.00838731       0.00452621       0.00324608
H       44.95330544     175.53102500      58.42773941  T      -0.00271392       0.00067320      -0.00360601
H       45.96796890     175.06068953      59.76471704  T       0.00100733      -0.00050277      -0.01047664
H       49.25385262     174.43563233      55.84189914  T      -0.00064370       0.00133272       0.00007445
H       48.16592396     177.02381456      55.03197154  T      -0.00299642       0.00285946      -0.00372473
H       48.55652879     175.67959696      57.75106480  T       0.00077232      -0.00294716       0.00119737
H       47.04674915     175.73877457      56.85534453  T      -0.00223800      -0.00342058       0.00080394
H       49.53445505     178.66384940      54.63674574  T       0.00147183       0.00039583       0.00065538
H       52.23333570     178.65515613      55.37834575  T       0.00454901      -0.00321489      -0.00133364
H       50.41869831     181.07192366      54.86563839  T      -0.00157658       0.00156739       0.00065252
H       51.26503742     180.16376986      53.61468295  T      -0.00051262      -0.00076578      -0.00235134
H       52.17712855     181.10587689      54.80242507  T       0.00217656       0.00137022       0.00006762
H       49.44778826     179.41123725      57.39408129  T      -0.00335573      -0.00013336      -0.00058879
H       51.26320901     180.92740547      59.17258691  T       0.00482073       0.00263209       0.00132766
H       48.18851249     180.75646041      59.23411886  T      -0.00458981      -0.00299729       0.00108987
H       49.15777503     181.70941493      60.34799600  T       0.00001002      -0.00043443       0.00421820
H       47.93466797     181.41535805      56.93335710  T       0.00081101      -0.00045634      -0.00002347
H       50.43622600     183.58872919      59.51916206  T      -0.00025621       0.00029268       0.00020426
H       48.12610403     183.22464792      55.23349701  T       0.00118991       0.00036419      -0.00029504
H       50.77923222     185.27631397      57.76041494  T      -0.00020497      -0.00037295       0.00054760
H       49.12652498     185.16193890      54.68588347  T       0.00097785       0.00357999      -0.00197393
H       50.82139518     177.73403045      58.76098952  T       0.00096236      -0.00256803      -0.00376701
H       51.06539086     177.47523749      61.70319547  T      -0.00123077       0.00128053       0.00525432
H       50.15244184     175.12593358      61.52903465  T      -0.00033196      -0.00676250       0.00502933
H       49.86685790     175.39409220      59.80966171  T      -0.00025913      -0.00239331      -0.00468894
H       48.22612729     176.18452844      61.91651970  T       0.02073083       0.00165959      -0.02356301
H       58.63311345     191.29343603      73.26332171  T      -0.00193550       0.00026233       0.00016237
H       56.04263363     190.06489343      74.01023054  T      -0.00278960      -0.00423899       0.00168108
H       55.42385791     192.44540473      74.76915830  T      -0.00315345       0.00405914      -0.00185490
H       57.05881169     192.94537518      74.43711633  T      -0.00072795       0.00471586      -0.00222863
H       58.93538110     191.81053835      75.70636103  T      -0.00008093      -0.00034806       0.00040342
H       54.88321415     191.50670061      76.81916868  T       0.00006193      -0.00048918       0.00037404
H       59.63009853     191.06438331      77.94166883  T      -0.00050481      -0.00005529      -0.00011890
H       55.50156221     190.80941244      79.07750504  T       0.00032741      -0.00007918      -0.00022968
H       57.88447110     190.53907033      79.63632642  T      -0.00015823       0.00022891      -0.00034980
H       54.16897383     190.88070783      72.86168238  T      -0.00071831       0.00577495       0.00009759
H       54.85001332     192.49972650      70.55466547  T       0.00293471       0.00294701      -0.00490170
H       52.93225497     191.68424666      69.38301567  T       0.00086380      -0.00041016      -0.00378482
H       53.58676818     190.25450224      70.14405545  T       0.00126935      -0.00281547      -0.00422356
H       53.28003396     195.95734105      72.32044869  T       0.00343812       0.00416616       0.00306101
H       50.85770437     196.10128898      70.43292539  T      -0.00363568      -0.00165047      -0.00106747
H       51.96274462     197.41421760      70.85422507  T       0.00082318       0.00434117       0.00083588
H       52.37757889     196.18071395      68.53370845  T      -0.00249782       0.00044182      -0.00415560
H       53.78111566     196.40574229      69.58600248  T       0.00394494       0.00153017       0.00058351
H       53.84553624     194.01265697      69.30449378  T       0.00408712      -0.00093949       0.00016908
H       52.07139221     193.87749093      69.24816276  T      -0.00433118      -0.00173983      -0.00065924
H       44.91795577     170.88490691      68.25354031  T      -0.00224515      -0.00023332       0.00006199
H       42.33324411     170.26952599      66.84908916  T       0.00013220      -0.00054644      -0.00432452
H       42.68284889     169.83737866      68.52773125  T      -0.00313585       0.00268965       0.00176657
H       43.51881045     169.00479941      67.19919539  T       0.00215679      -0.00299461       0.00251163
H       48.32212359     172.81092686      67.89052039  T      -0.00186014       0.00003428      -0.00237803
H       49.14474465     172.29580970      69.36889909  T       0.00007477       0.00241511       0.00183553
H       48.67378068     171.09984714      68.15564641  T       0.00031324      -0.00261803       0.00119926
H       50.64965387     189.34870760      61.01102800  T       0.00089358       0.00111754      -0.00090729
H       52.26045830     189.72714388      58.53628994  T       0.00187414       0.00669858      -0.00044086
H       50.67507626     190.48669631      58.72594734  T      -0.00692648      -0.00154811       0.00024706
H       50.81510888     188.71599018      58.66794687  T       0.00489890      -0.00511087      -0.00091628
H       58.00943320     178.18806194      68.52339692  T       0.00014217       0.00351595      -0.00199502
H       58.62071252     177.01474104      69.69463038  T      -0.00218266      -0.00301250      -0.00155603
H       59.25969050     178.65965323      69.68006904  T       0.00267816      -0.00080788       0.00273319
H       49.27205207     175.35363222      80.57630707  T      -0.00113321      -0.00113344      -0.00002569
H       47.13221355     173.48021005      81.40917100  T      -0.00361138       0.00049763       0.00072177
H       47.99399652     174.52556619      82.54469643  T       0.00227878       0.00121429       0.00283317
H       48.85542118     173.21947783      81.70190042  T       0.00070281      -0.00328923      -0.00151050
H       45.36609725     175.23262020      73.40186822  T       0.00372623       0.00122647       0.00389398
H       43.66167222     174.86128705      73.10872254  T       0.00186326      -0.00163281      -0.00493123
H       44.17236044     175.49036411      74.67688956  T      -0.00487799      -0.00082891       0.00137725
H       45.51947423     187.88380510      72.32168739  T      -0.00101496      -0.00196403       0.00764041
H       44.02956659     187.56855331      74.86962919  T      -0.00064009       0.00536952       0.00340673
H       43.64708698     186.77625660      73.33707643  T       0.00176246      -0.00545165       0.00289285
H       43.33262809     188.51602678      73.54274233  T      -0.00249777      -0.00021677      -0.00580095
H       39.73830704     175.91099711      65.05177992  T      -0.00172095      -0.00275397      -0.00577969
H       40.63670108     175.49211976      66.51762506  T      -0.00283757       0.00537933       0.00225515
H       40.64816932     174.39471469      65.14277700  T       0.00340152      -0.00354807       0.00448273
H       42.71795455     175.64629358      60.83030858  T      -0.00112064       0.00254936       0.00265627
H       42.17537792     172.72612629      60.57783679  T      -0.00074604      -0.00172010      -0.00330416
H       40.91469662     173.97075988      60.57203108  T      -0.00245340       0.00242186       0.00139334
H       41.86427174     173.66784288      62.04581701  T       0.00214404      -0.00190739       0.00255167
H       49.36266323     173.42972601      52.32464065  T       0.00192970       0.00049048      -0.00201996
H       48.42495990     172.89866022      53.72341910  T      -0.00274916      -0.00045292      -0.00081287
H       50.18584420     173.03290965      53.83616403  T       0.00084068      -0.00113934       0.00253012
H       52.69253152     176.12404798      62.43697129  T       0.00063678      -0.00037763      -0.00157489
H       54.75604573     175.39935881      60.33825144  T       0.00132146       0.00240843      -0.00221188
H       54.48852465     174.40195152      61.77901060  T      -0.00087811      -0.00281147      -0.00134436
H       55.19324848     176.02694442      61.93369539  T       0.00084549      -0.00001252       0.00313134
H       60.53315827     190.18971726      73.72903945  T       0.00064180       0.00236591       0.00160525
H       60.35630662     188.50723938      73.21904638  T       0.00037082       0.00011652      -0.00296910
H       60.38930663     188.90566515      74.93551064  T       0.00003033      -0.00261954       0.00130100
H       50.88845876     193.40432868      72.33753061  T       0.00551764      -0.02228034      -0.01468275
H       49.33699114     195.00733543      74.30404443  T      -0.00402174       0.00464414      -0.00268758
H       49.59120733     193.25460990      74.32225753  T       0.00545086       0.00231169       0.00514372
H       48.47417969     193.97926313      73.14344005  T      -0.00080847      -0.00791841      -0.00093945
H       50.29950426     186.96661008      65.14361842  T      -0.00251031      -0.00088898      -0.00033829
H       54.05068744     189.53384511      66.99971989  T       0.00005686       0.00042622       0.00003391
H       53.17919425     191.86732357      66.82761394  T       0.00043096      -0.00023997       0.00014859
H       47.44205514     183.79532504      66.59988690  T       0.00071488      -0.00237064      -0.00061083
H       49.76840988     181.97740562      66.30911709  T       0.00369009      -0.00167545      -0.00112407
H       48.49818693     180.68708028      68.08421151  T      -0.00384921      -0.00452177       0.00021882
H       47.20794771     181.85102103      68.03326965  T      -0.00508269      -0.00451757      -0.00001180
H       48.55227787     183.55704674      69.03547718  T      -0.00338553       0.00607883       0.00068575
H       50.86953034     181.57874218      68.80047217  T       0.00055438      -0.00055563       0.00104790
H       50.94668291     183.09120147      69.69433112  T       0.00147847       0.00181722       0.00014571
H       50.70465552     183.10986677      67.95323493  T       0.00088601       0.00000557      -0.00152998
H       49.08646461     180.92087303      70.49843900  T       0.00137422      -0.00124245       0.00154077
H       47.65518992     181.92478036      70.68461836  T      -0.00191555      -0.00164380       0.00080120
H       49.22564241     182.51955239      71.22188880  T      -0.00017026       0.00130286       0.00237483
H       48.21059161     185.90920860      64.64338146  T      -0.00318324       0.00077644      -0.00317809
H       47.79711610     186.01418438      66.34379549  T      -0.00560404       0.00068731       0.00078201
H       49.16864889     190.40764039      66.80700813  T      -0.00020881      -0.00013570      -0.00015752
H       55.95722098     179.06940659      61.56578243  T       0.00094741       0.00036340      -0.00130694
H       58.83144541     174.31986766      74.31493015  T      -0.00512025       0.00565195      -0.00053196
H       50.89046157     177.38351548      64.08501440  T       0.00003221       0.00000111       0.00125313
H       47.45629302     182.22087826      63.67262951  T       0.01743899      -0.01694234      -0.00385030
H       45.77628419     181.39817107      64.76775926  T       0.00125227       0.00157658      -0.00296394
H       44.35395299     180.43565090      62.89650492  T      -0.00199202       0.00426862       0.00096385
H       44.23638738     181.96733749      63.08730517  T      -0.01177395      -0.00396945       0.00595865
H       49.47470320     189.74233955      70.12329937  T      -0.00008327       0.00023834       0.00001987
H       48.66699239     188.87535316      69.14222069  T       0.00018266      -0.00041615       0.00022382
H       50.77233375     182.79222395      62.55138297  T       0.00273545       0.01381789      -0.01694240
H       49.86248624     181.74616518      63.30124524  T       0.01385494       0.01916863      -0.00001432
