544
Properties=species:S:1:pos:R:3:move_mask:L:1:forces:R:3 BO2_MS_C_ASP17=T |=T Arg19=T repaired=T +=T controlled=T bridge=T water=T Asp17=T OD2-H=T tautomer=T charge=-1 energy=-2548.093463786805 stress="0.0 0.0 0.0 0.0 0.0 0.0 0.0 0.0 0.0" pbc="F F F"
N       47.86000000     179.16600000      62.75300000  F      -0.10112197      -0.80178166      -0.30035000
C       47.74100000     178.18400000      63.82800000  F      -0.14069851       0.71489139       0.17632697
C       46.89800000     177.01300000      63.45800000  F      -0.68557018       1.03038557      -1.11862320
O       45.92400000     177.16600000      62.74200000  F      -0.04907507      -0.03794979       0.20876729
C       47.11500000     178.90200000      65.03000000  F       0.82913537      -0.06272805       1.11301346
O       48.05800000     179.83300000      65.54700000  F      -1.08425238       0.60508875      -0.69937183
C       46.75800000     177.97700000      66.20200000  F      -0.17882550      -0.20378721      -0.43905558
N       47.29700000     175.82200000      63.92600000  F       0.64078166      -1.26369603      -0.00059362
C       46.45400000     174.65200000      63.87400000  F       0.21928114      -0.44377957       0.60980447
C       46.46600000     174.00900000      65.26500000  F       1.08672687       1.09662770      -0.55430190
O       47.51200000     173.74100000      65.82500000  F       0.07041978      -0.38422115      -0.28413151
C       46.85700000     173.64600000      62.77200000  F      -0.71844053      -0.03513944      -0.13615989
O       47.03300000     174.32800000      61.52200000  F       0.05464494       0.17399608       0.46967722
C       45.74000000     172.58800000      62.63800000  F       0.44450737       0.13423550      -0.00263441
N       45.27100000     173.88600000      65.86300000  F      -1.07920117      -0.14351603       0.55843351
C       45.10500000     173.16100000      67.09700000  F      -0.37498369      -0.29414664       0.12401144
C       44.05700000     172.10600000      66.86000000  F      -1.52041726       2.09748018      -2.61034031
O       43.14400000     172.33000000      66.03400000  F       1.43287791      -0.47165494       1.51067614
C       44.68600000     174.04700000      68.28800000  F       0.10144537       0.15272981      -0.54445629
O       43.45900000     174.68700000      68.01900000  F      -0.53268063      -0.05661452      -0.01422439
C       45.72600000     175.09400000      68.54400000  F       0.57233258       0.33179918       0.26099289
N       50.41500000     173.24300000      66.68500000  F       0.22089689       0.73677356      -1.02783259
C       51.64600000     173.72200000      66.09000000  F       0.16836069       0.29157827       0.85862898
C       52.22400000     174.79300000      67.03300000  F      -1.79812504      -0.88122368       1.47536544
O       51.71300000     174.99200000      68.14900000  F       0.78479589      -0.12618889      -1.69383863
C       51.44500000     174.21900000      64.66800000  F      -0.51202538       1.38682698      -0.45442554
C       50.85100000     175.67100000      64.62000000  F      -2.00724185      -4.74301502       3.74056115
O       49.89900000     175.90100000      65.33700000  F      -0.22802782      -0.54859688      -0.00716827
O       51.36800000     176.53800000      63.92800000  F       2.84143813       3.76979977      -3.49637511
N       53.29800000     175.45600000      66.58800000  F       0.58707587       0.81048030      -1.18206206
C       53.98000000     176.37900000      67.42500000  F       0.17405760       0.56147476       0.73744081
C       54.42000000     177.68400000      66.77600000  F       1.00318553       0.87960300       1.83169810
O       55.29400000     178.39100000      67.32700000  F      -1.33657566      -1.47907075      -1.43600083
C       55.14400000     175.64800000      68.02800000  F       0.24799084      -0.00828176       0.75484350
O       56.10400000     175.32300000      67.08600000  F       0.32617442      -0.03046346      -0.30094255
N       53.73900000     178.07000000      65.67300000  F       0.08157893      -0.02315729      -0.55851018
C       54.13100000     179.24900000      64.92000000  F      -0.66648271       0.20862999      -0.13111583
C       53.30200000     180.45100000      65.35500000  F      -0.48318176      -2.88501539       0.01111589
O       52.12100000     180.31100000      65.52100000  F      -1.04594247       0.25450193      -0.29840906
C       53.87800000     179.01400000      63.43500000  F       0.16841531       0.38166150      -0.37968154
C       54.02700000     180.29000000      62.55900000  F      -0.00543986      -0.44872916       0.81547868
C       54.11000000     179.93900000      61.10900000  F      -0.03909701      -0.04717407      -0.58412836
N       55.30700000     179.17700000      60.79000000  F      -0.26883198       0.18410058       0.75770186
C       55.63600000     178.74900000      59.56100000  F       0.90538027      -0.16815508       0.52501346
N       54.89600000     179.02000000      58.51500000  F      -1.05474680       0.19203756      -1.39549343
N       56.79600000     178.10500000      59.36800000  F       0.52075733      -0.35839793       0.10589600
N       53.93000000     181.57900000      65.50300000  F       2.06511957       2.54714920      -0.09277652
C       53.26600000     182.85600000      65.52000000  F      -0.04980832       0.43858221       0.05263875
C       53.69100000     183.73000000      64.34400000  F       2.23133014      -0.49304119       1.19166970
O       54.86600000     183.78000000      63.98800000  F      -0.90246813      -0.52048524      -0.13078141
C       53.60800000     183.58900000      66.80600000  F      -0.24242344       0.13223625      -0.05076541
N       52.76300000     184.56000000      63.88700000  F      -1.98667390       0.65537743      -0.36207744
C       52.95600000     185.45200000      62.79600000  F       0.45078209       0.46643315      -0.72764381
C       52.44100000     186.84600000      63.06900000  F      -1.06170997      -1.22256977       0.56903150
O       51.42100000     187.04100000      63.69000000  F       0.48898124      -0.00779030      -0.75074942
C       52.35300000     184.90300000      61.47200000  F       0.18738176      -0.92048292       0.67020748
O       51.03100000     184.45400000      61.69800000  F      -0.74697801       0.38675232      -0.22224885
C       53.12900000     183.68100000      60.98200000  F       0.30993421       0.28619446      -0.04402225
N       53.14600000     187.82700000      62.51900000  F       1.30777950       1.53564008      -0.54967113
C       52.76100000     189.24900000      62.50900000  F       0.52471071      -0.76638905      -0.41153616
C       52.67800000     189.56500000      61.02800000  F       1.55532105       0.88493944       0.49917293
O       53.69300000     189.79000000      60.39100000  F      -0.07933570      -0.28596476       0.22877441
C       53.84300000     190.08700000      63.16900000  F      -0.14430750      -0.02121594      -0.08465571
N       56.06200000     178.77600000      70.10600000  F      -0.78485539       0.70757933      -1.05891159
C       55.01900000     179.19100000      70.99100000  F      -0.88837218      -0.87453793       0.08426703
C       54.41400000     177.93400000      71.61200000  F      -0.13482696      -0.66260222      -2.20642731
O       54.12100000     176.98500000      70.87400000  F       0.42572671       0.99804999       0.81521536
C       53.88000000     179.91700000      70.23400000  F       0.47059353       0.12737490       0.20682807
C       52.80800000     180.37200000      71.19200000  F      -0.49672371      -0.06466532       0.30111390
C       54.42500000     181.11400000      69.49900000  F       0.18674177       0.16363106      -0.37160003
N       54.14500000     177.97100000      72.92100000  F      -0.15253952      -0.14079248       1.53279706
C       53.36600000     176.92500000      73.57300000  F      -0.71541283       0.33714083      -0.23515724
C       51.87300000     177.28800000      73.49500000  F       2.57945060      -0.36074699       0.24881422
O       51.45600000     178.15600000      74.18100000  F      -0.84026237       1.94528909       1.46532907
C       53.75900000     176.74600000      75.01900000  F       0.10180457      -0.02645699       0.21177722
C       55.21400000     176.33700000      75.18500000  F       0.23614125      -0.32573802      -0.13060182
C       55.51700000     174.96900000      74.53300000  F      -0.11230925      -0.11928488       0.47845703
C       56.83900000     174.31600000      75.00400000  F      -0.34132648       0.39447113      -0.37405496
N       57.89700000     174.64600000      74.01500000  F       0.31484852      -0.02252978       0.01578502
N       51.13400000     176.62500000      72.64300000  F      -1.43019269      -1.87128741      -1.81017905
C       49.71600000     176.90100000      72.43200000  F      -0.35626626       0.20465584      -0.13310651
C       48.77200000     176.04900000      73.26900000  F      -3.31224235       2.15676479      -0.89866213
O       47.52800000     176.28000000      73.26500000  F       2.83817349      -0.53569430      -0.21177044
C       49.37100000     176.78000000      70.95000000  F      -0.84736874      -0.65050014       0.51729599
C       50.18100000     177.65300000      70.07500000  F       0.74857987       0.63799508       0.12550746
C       49.72600000     177.66300000      68.64600000  F      -0.03216338       0.02688369      -0.58711900
C       50.62200000     178.54800000      67.79200000  F      -0.18006423      -0.09648508      -0.98401552
N       50.30600000     178.48400000      66.33800000  F       0.47561491       0.01419810       1.10891061
N       49.31500000     175.10600000      74.01100000  F       1.28707221      -1.72527426       1.42750576
C       48.58100000     174.35100000      75.03000000  F      -0.24826170       0.13867008      -0.31398203
C       48.87400000     174.86500000      76.41100000  F      -0.32444671       0.38847267      -1.86831500
O       49.97800000     174.85800000      76.83600000  F       2.47675241      -0.50904032       0.80318672
C       48.86300000     172.86200000      74.93600000  F      -0.30599565      -0.31536928      -0.31553021
C       48.00700000     172.11800000      75.94000000  F      -0.00339964      -0.23273811       0.39835606
C       48.53800000     172.35300000      73.53300000  F       0.22182348       0.05356332      -0.12764808
N       47.88300000     175.43300000      77.07900000  F      -1.73504680       0.81028552       1.62925404
C       48.07500000     175.99100000      78.43700000  F      -1.24312551      -0.87391653       0.02978465
C       47.60000000     174.96900000      79.48700000  F      -2.80876071       0.41414902      -2.57622985
O       46.50400000     174.40000000      79.36000000  F       1.51410467       0.59465227       0.02565877
C       47.23000000     177.28900000      78.56000000  F       1.06342485      -0.45244932       0.50094133
C       47.92700000     178.30100000      77.68600000  F       0.04367509       0.03173858      -0.59569190
C       47.16900000     177.86500000      79.97500000  F      -0.21438266      -0.40569536       0.22064381
C       46.91300000     179.26200000      77.19800000  F      -0.38297286       0.83872469      -0.10153926
N       45.06900000     177.49700000      72.37500000  F       1.96577175       1.06687923      -1.35138352
C       45.08700000     178.88400000      71.87400000  F       0.80523280      -0.42802035       0.22161380
C       45.16900000     178.92200000      70.35700000  F       3.17920385      -1.61414770       0.19714528
O       46.09600000     178.35500000      69.73900000  F      -1.54630458       0.62960821       1.06053841
C       46.33400000     179.63700000      72.44600000  F      -0.64973253       0.01727993      -0.53191764
C       46.39300000     179.61300000      73.94600000  F       0.07799657      -0.23191301       0.39564047
S       47.39400000     180.86300000      74.73100000  F       0.69360541       0.10429194      -0.55544451
C       49.08400000     180.44300000      74.22900000  F      -0.76002278      -0.01585683       0.07393129
N       44.31000000     179.72300000      69.76300000  F      -1.65149251       1.27257811      -0.61706750
C       44.37900000     180.09100000      68.37300000  F      -0.73320464       0.64274907      -0.11306743
C       43.70300000     181.47000000      68.24700000  F      -0.14603833      -0.93498591       1.45866488
O       42.76100000     181.74200000      68.96300000  F      -0.14376812      -0.23758989      -0.12883862
C       43.61800000     179.08600000      67.55700000  F       0.03222418      -0.29035679      -0.31823411
N       44.21300000     182.35000000      67.39100000  F       0.65155777       1.14304161      -1.88100843
C       43.68400000     183.70300000      67.15500000  F       0.02770766      -0.92687037       0.07417838
C       44.74000000     184.66900000      67.54400000  F       1.91057102      -2.24369865      -0.56806281
O       45.90700000     184.42800000      67.24000000  F      -0.99235496       0.77700658      -0.16438409
N       44.35800000     185.66900000      68.31100000  F      -1.87951653       1.64293985       0.73376899
C       45.21700000     186.65900000      68.81200000  F       0.99396147       0.07055423       0.57079515
C       46.03400000     186.08700000      69.94800000  F      -1.44202122       0.17986624       0.10340265
O       45.50900000     185.57800000      70.91900000  F      -0.27530852       0.16784655      -0.28413073
N       47.35700000     186.20700000      69.84900000  F       1.68204332      -0.01677173       0.26865799
C       48.24700000     185.66100000      70.87300000  F       0.77924840       0.44053978       0.22561431
C       48.00300000     186.30600000      72.24300000  F       0.16717989      -2.55128165       0.75508782
O       47.89400000     185.60300000      73.25900000  F       0.19767804       0.62376640      -1.42348526
C       49.74500000     185.87000000      70.46700000  F      -1.11987350      -0.34168392       0.44589595
N       47.99700000     187.63100000      72.31600000  F      -0.33620474       1.37546459       0.31500260
C       47.79000000     188.29000000      73.60400000  F      -1.05592197      -0.16731614       0.16069886
C       46.37300000     187.97100000      74.17700000  F       2.02654005      -0.51399156       0.62349969
O       46.25200000     187.68900000      75.35200000  F       0.02408869       0.46953350       0.17653357
C       47.94400000     189.77600000      73.45900000  F       0.22142698       0.34196957       0.05333544
N       41.67600000     177.26100000      64.19100000  F       1.34595306       1.41129967      -0.52317910
C       42.83500000     178.06900000      63.66600000  F      -1.22669593      -1.32820226      -0.34330494
C       42.79500000     178.05500000      62.14600000  F      -3.24053517      -3.03786053       0.35680741
O       41.98100000     177.33200000      61.51700000  F       1.32656261       1.63655376       1.38381319
N       43.70000000     178.80000000      61.55400000  F       2.90821744       1.72176780      -0.66433058
C       43.77700000     178.96000000      60.13300000  F      -1.13887866      -0.52765898      -0.57057939
C       44.07100000     177.67100000      59.40100000  F      -1.45848885       0.50355845      -1.66922084
O       43.68700000     177.52300000      58.23400000  F       0.61640869       0.25504943       1.29055541
C       44.80300000     179.97300000      59.82800000  F       1.66217613      -0.00255390      -0.16928403
O       46.08600000     179.49100000      60.29100000  F      -0.78061486       0.97980466       0.14527321
N       44.71300000     176.72000000      60.08000000  F       0.59739142      -1.35809985       0.89285418
C       44.95800000     175.39500000      59.51400000  F       0.24636084      -0.01210076      -0.54035209
C       43.97000000     174.30600000      59.82900000  F       0.65837752      -0.94705180      -1.24788511
O       44.14200000     173.16500000      59.37800000  F      -0.11380636       1.30444776       0.80830994
N       49.08300000     175.18400000      55.16800000  F       0.15788973      -0.31121138       1.64789929
C       48.77300000     176.46600000      55.76000000  F       0.12937968       0.17229896       0.28595171
C       50.03300000     177.26300000      56.05900000  F      -0.75522010      -1.04596916       1.00320918
O       50.77800000     176.91400000      56.95100000  F       0.03621094      -0.19883817      -0.28304790
C       47.97300000     176.28200000      57.05300000  F      -0.31851968       0.81293432       0.25259025
C       47.64800000     177.61700000      57.74200000  F       0.21877775       1.05277427       0.94057573
O       47.64400000     178.66700000      57.04600000  F      -0.07780898      -1.45668819       0.75222367
O       47.47400000     177.60000000      58.99700000  F       0.15145367      -0.31776323      -2.58203102
N       50.18500000     178.39700000      55.37800000  F       0.57206055       1.41092219      -0.77281942
C       51.34500000     179.27200000      55.58400000  F       0.23458159       0.28409933       0.67235167
C       51.47100000     179.75500000      57.04700000  F       3.07870829      -0.37634144      -0.66284771
O       52.59100000     180.04300000      57.53400000  F      -2.41919522      -0.23019430      -1.12809860
C       51.30300000     180.47000000      54.66000000  F       0.05220471      -0.00378789      -0.05156598
N       50.33800000     179.82100000      57.73300000  F      -1.16375309       0.19099301       1.13177261
C       50.34100000     180.33300000      59.08900000  F      -0.74457912       0.43187692       0.67297432
C       50.44500000     179.24900000      60.14900000  F      -0.53235525       2.08355406       1.90132565
O       50.31300000     179.56900000      61.34700000  F       0.29894295      -0.68133665      -1.97672923
C       49.12600000     181.31500000      59.32700000  F       0.87228482      -1.63524184       0.42656928
C       49.21100000     182.37300000      58.33900000  F      -1.47929066      -0.27772833      -0.76647851
C       48.53100000     182.29000000      57.13500000  F       0.00428957       0.44070277      -0.90107316
C       49.95400000     183.46800000      58.56100000  F       1.46160406       1.50922935       0.39930829
C       48.65500000     183.29900000      56.16700000  F      -1.20123040      -2.29790096       0.57216771
C       50.14300000     184.42600000      57.58500000  F       0.25194576      -0.03279374       1.45857083
C       49.46900000     184.34700000      56.40300000  F       0.64184186       0.93299966      -0.52605065
O       49.67000000     185.32700000      55.48700000  F       0.05350468       0.72971066      -0.71204072
N       50.74300000     178.00900000      59.76100000  F       0.09321544      -1.32527835      -0.36083572
C       51.02000000     176.97300000      60.72600000  F       0.48932050      -0.66613986      -0.32487370
C       52.40300000     176.36000000      60.41500000  F       0.23837085       0.23096774      -4.69398044
O       52.83300000     176.22500000      59.18500000  F      -1.62983494       0.44248103       4.81117772
C       49.91600000     175.89400000      60.78300000  F      -0.45356259       0.50799054      -0.04236082
O       48.59300000     176.43000000      61.02500000  F       1.06142540      -0.25890753       0.04514426
N       58.01900000     190.54800000      73.59500000  F      -1.14471525       2.86327070      -0.76206526
C       56.60800000     190.95700000      73.70700000  F       0.35450517       0.27163829       0.52127751
C       56.06900000     191.48400000      72.40000000  F       0.99831233      -0.42481338       0.95399025
O       56.75700000     192.12400000      71.66200000  F       1.07652536       0.78112932      -0.75326520
C       56.46100000     192.09100000      74.76800000  F      -0.21363663      -0.23846327      -0.87779326
C       56.86500000     191.70400000      76.13100000  F       0.27716085      -0.01349046      -0.13682138
C       58.19500000     191.58900000      76.45600000  F       0.49393561       0.05257270      -0.29065170
C       55.92500000     191.41800000      77.08200000  F      -0.99432899       0.03955901       0.08980070
C       58.58700000     191.17200000      77.69800000  F      -0.93461986      -0.37530315       1.09716622
C       56.26300000     191.02800000      78.34700000  F       0.29060910      -0.24456837       0.20592496
C       57.59400000     190.87200000      78.65400000  F       0.99266253       0.28578736      -0.46210463
N       54.78400000     191.26700000      72.14300000  F      -2.27205522      -0.59131013       0.22024243
C       54.06500000     192.08500000      71.20700000  F      -0.47832270       0.73994156       0.03670895
C       53.39300000     193.30200000      71.92900000  F       1.58506495      -1.83642292       0.41933782
O       53.42100000     193.43500000      73.14300000  F       0.22777597      -0.52133587      -0.43277425
C       53.11400000     191.21700000      70.35300000  F      -0.31230925       0.11743572       0.43124647
C       51.76300000     190.96700000      70.99500000  F      -1.65708369      -0.72273698      -0.01754527
O       51.42500000     191.44700000      72.08100000  F       0.83385388       0.38700523      -0.04994930
O       50.94700000     190.26100000      70.36900000  F       1.97704977       0.70742485      -0.08767298
N       52.85200000     194.26100000      71.16400000  F      -0.98310918       0.70096637       0.36591927
C       52.41200000     195.50300000      71.82400000  F      -0.99864638       0.40147803       0.18635586
C       51.27800000     195.35200000      72.84000000  F       1.93515693       1.80716838       0.25544671
O       51.11000000     196.21600000      73.68500000  F      -0.05435215      -0.00544625      -0.38260257
C       51.90800000     196.33900000      70.63800000  F      -0.06484304       1.17402926       0.86655757
C       52.79800000     195.92400000      69.51600000  F       0.00538671      -0.12709873      -1.44895494
C       52.91000000     194.41600000      69.70300000  F       0.60441642      -0.36145547      -0.34780781
N       44.18000000     170.99300000      67.55100000  F      -0.47339537      -2.48803410       1.26023352
C       43.11900000     169.96000000      67.53700000  F       0.51856583       0.53178346      -0.06716998
C       49.04800000     172.11100000      68.30100000  F       1.18631907      -0.17493080      -0.31212655
C       50.41400000     172.27400000      67.61400000  F       0.97574435      -2.67510685       1.83017289
O       51.40800000     171.53300000      67.90800000  F      -2.68426092       2.12954703      -0.76583862
N       51.47700000     189.61000000      60.46800000  F      -2.21209034      -0.24424448      -0.99053836
C       51.28700000     189.63400000      59.01600000  F       0.26627300       0.07880042       0.40576640
C       58.36100000     178.06100000      69.54600000  F      -0.64247614       0.35225753       0.42812434
C       57.29000000     178.48500000      70.54800000  F       1.32249257      -1.18328282      -1.37654566
O       57.54400000     178.47200000      71.71200000  F       0.67215535       0.24579040       1.84943682
N       48.37100000     174.86500000      80.53200000  F       2.02580607      -0.12715407       1.99490516
C       48.08100000     173.98100000      81.60400000  F      -0.26553343      -0.40153256       0.34660585
C       44.34400000     175.54900000      73.60400000  F      -0.24234768       0.85036975      -0.04603367
C       44.10400000     176.97400000      73.11200000  F      -2.06081358      -1.25003215       1.00037970
O       43.04800000     177.55200000      73.33400000  F       0.52522518      -0.27110524       0.09065421
N       45.34300000     187.98800000      73.32800000  F      -1.03135011       0.29616620      -1.19385533
C       44.01100000     187.70000000      73.78800000  F       0.02435420      -0.21199487       0.00822519
C       40.64600000     175.44500000      65.43000000  F       0.83624118       0.04915961      -0.21242678
C       41.89000000     176.12400000      64.89200000  F       1.98540109      -2.00777324       1.25405901
O       43.04500000     175.65300000      65.14300000  F      -2.98567910       1.38281592      -0.60654829
N       42.87500000     174.66500000      60.52700000  F      -0.54028578       0.35712818       0.66035024
C       41.90000000     173.71000000      60.95700000  F      -0.07877282      -0.20239892       0.00725212
C       49.29000000     173.47900000      53.40900000  F       0.04096812       1.19910581       0.31233334
C       49.14800000     174.95100000      53.85500000  F      -0.03790143      -1.93353962      -1.12095044
O       49.04600000     175.81700000      53.03200000  F      -0.06120992       0.79100523      -0.71289108
N       53.10200000     176.00200000      61.50000000  F       1.59256066      -0.75246199       0.59521781
C       54.47400000     175.41800000      61.39000000  F      -1.00226901       0.44261458       0.01031667
C       60.05000000     189.24300000      73.95900000  F      -1.63474217      -0.05266651       0.05616380
C       58.49000000     189.38000000      73.95400000  F       2.99740775      -1.76760175       0.02111034
O       57.80600000     188.43100000      74.22400000  F      -0.53275057      -0.64598718       0.55828898
N       50.51300000     194.28900000      72.73400000  F      -1.91423082      -2.08847942       0.18594843
C       49.41200000     194.11700000      73.68000000  F       0.38555390      -0.09032835      -0.25710782
O       44.57000000     181.16200000      63.51200000  F      -0.59048817      -0.00307517      -0.44402674
O       48.60300000     189.36900000      69.98000000  F      -0.94162521      -0.50119474      -0.31166992
O       50.73300000     181.88100000      62.89200000  F       0.20096490       0.03298344       0.16264678
N       51.87500000     188.49000000      66.29100000  F       0.19432256       0.39130009      -0.07490413
C       51.24300000     187.80100000      67.25400000  F       0.96850646      -0.10479809       0.73058129
C       51.87900000     187.57200000      68.49100000  F       1.25170504       1.52865501      -1.47625822
N       53.08500000     188.13200000      68.73400000  F      -0.52577402      -0.73874620       0.71663495
C       53.69200000     188.83900000      67.79400000  F      -1.23792460      -0.18502047      -0.80260983
C       53.07300000     189.03000000      66.56800000  F      -0.63648441      -0.68250375       1.00037446
C       49.97700000     187.08900000      66.95300000  F       0.47855760      -0.45084094       1.33445730
O       49.22000000     186.75300000      67.85200000  F      -0.10696616       0.65346098      -0.13640332
N       49.80900000     186.66500000      65.68700000  F      -0.44518737       0.25327362      -0.21703325
C       48.70400000     185.84800000      65.26000000  F       0.11711928      -0.62113354       0.06777209
C       48.40700000     186.17400000      63.81100000  F      -0.55610629      -0.14515077      -0.39248771
C       47.36200000     185.28400000      63.18300000  F       0.06130806      -0.21889492      -0.69333615
C       46.04900000     185.27100000      63.62900000  F      -0.31358997      -0.68362074      -0.61923973
C       45.09900000     184.46200000      62.98000000  F       0.22199991       0.52181966       0.81706901
C       45.41500000     183.65600000      61.91300000  F       0.79382607       0.10129899      -0.22237747
C       46.71700000     183.67000000      61.42700000  F       0.50059767       0.88666922       0.99714511
C       47.68300000     184.49600000      62.06300000  F      -0.96309602      -0.56292542      -0.07061064
C       49.10200000     184.38700000      65.39000000  F       1.64554180       0.77541718      -1.23647464
O       50.11000000     183.99900000      64.83200000  F       0.15829962       0.08813363      -0.27139687
N       48.35800000     183.54000000      66.08000000  F      -1.79364355      -1.02546178       1.04921000
C       48.60800000     182.12100000      66.22200000  F      -0.17489256       0.43100702       0.54185877
C       48.26300000     181.70300000      67.66500000  F       0.16096505      -0.26498633      -0.97763109
C       49.00500000     182.50400000      68.72100000  F       0.11749340       0.19400826       0.33759241
C       50.50000000     182.64600000      68.45100000  F       0.05152609       0.03414326      -0.20632141
C       48.78800000     181.86700000      70.08400000  F      -0.15169793       0.00044507       0.29118842
B       47.72300000     181.23600000      65.16900000  F      -0.40783306      -0.08546166      -0.72652967
O       48.09200000     181.51000000      63.70100000  F       0.24904207       0.49313862       1.10978261
O       46.24600000     181.62500000      65.24400000  F       1.16332137      -0.20590300       0.59755446
H       48.13623641     178.71229812      61.88944736  T       0.00155253       0.00698108       0.00770559
H       48.54181127     179.88052515      62.98235926  T       0.00028557      -0.00255768      -0.00468341
H       48.73794818     177.82242871      64.11145182  T       0.00144970       0.00073927       0.00547511
H       46.23662109     179.45661781      64.69249191  T      -0.00519501      -0.00244037      -0.00135065
H       47.61355608     177.35936840      66.46699902  T       0.01097578      -0.00716343       0.00328187
H       45.93793114     177.30884257      65.94068081  T      -0.01101184      -0.01112107      -0.00416586
H       46.47984888     178.54713551      67.08497612  T      -0.00474872       0.00634952       0.01113567
H       48.12299185     175.73925022      64.53322173  T       0.00084461       0.00300291      -0.00056340
H       45.43808601     175.01038701      63.65877228  T       0.00201511       0.00656329      -0.00145883
H       47.81897115     173.18207224      63.03411717  T       0.00224674       0.00155942      -0.00221937
H       46.57438691     175.19433756      61.62072110  T      -0.00524137      -0.00728473       0.01972960
H       44.80294908     173.06568555      62.35729015  T      -0.00023096       0.00308926      -0.00043118
H       45.57853976     172.05382294      63.57426231  T       0.00279171       0.00183829       0.00344213
H       45.98259539     171.86594481      61.85987656  T       0.00360228       0.00010444      -0.00129800
H       44.42047143     174.31142680      65.47552237  T       0.00211972       0.00128458      -0.00293669
H       46.06120402     172.67239464      67.32100869  T      -0.00008613      -0.00389904      -0.00194279
H       44.52527422     173.42354592      69.18255501  T      -0.00472037       0.00181447       0.00088722
H       43.40076846     174.96419244      67.06859504  T      -0.00244461      -0.00125620      -0.00009746
H       45.88588869     175.68669957      67.64531953  T       0.00044079       0.00037992      -0.00370866
H       46.68497194     174.65614551      68.82339725  T       0.00278473      -0.00256683       0.00244746
H       45.41383914     175.77764449      69.33477810  T      -0.00293418       0.00295671       0.00178346
H       49.54364954     173.71682706      66.40021916  T      -0.00017796       0.00039416       0.00048446
H       52.33335646     172.86091925      66.09907528  T       0.00012851      -0.00023823       0.00136138
H       52.39112317     174.22618906      64.12263957  T       0.00207366      -0.00075512      -0.00034261
H       50.77226523     173.54544409      64.13315146  T      -0.00114266      -0.00230272       0.00013395
H       53.82416928     175.14389736      65.76890645  T      -0.00232330       0.00351637      -0.00142104
H       53.27513133     176.63639038      68.23425983  T       0.00381843       0.00240264       0.00314288
H       55.61379250     176.24570035      68.82327246  T      -0.00007875       0.00075550       0.00058011
H       54.80568585     174.70766484      68.48390972  T       0.00480793      -0.00344684      -0.00102500
H       56.42817278     176.14616716      66.65880910  T       0.00067591       0.00051284       0.00137166
H       52.94914951     177.52245842      65.30799986  T      -0.00128544      -0.00002907      -0.00071054
H       55.19331453     179.44597818      65.11921642  T       0.00090037       0.00024276      -0.00152806
H       54.54426977     178.22515769      63.07511648  T       0.00102916      -0.00215876       0.00003693
H       52.86503632     178.61892497      63.31060800  T      -0.00227844      -0.00042283       0.00088885
H       53.18950989     180.96721247      62.75997055  T      -0.00253733       0.00053489      -0.00055636
H       54.92876382     180.83577149      62.85715423  T       0.00049042       0.00293240      -0.00223782
H       53.24205765     179.34012660      60.80818482  T      -0.00051555      -0.00109578      -0.00218101
H       54.10362245     180.83658619      60.47999600  T      -0.00058924       0.00197489      -0.00034975
H       55.12816629     178.65118726      57.60679106  T       0.00443683      -0.00173880       0.00186792
H       53.97019674     179.42644751      58.49623098  T       0.00076348       0.00135073       0.00461298
H       57.11102639     177.79730947      58.46066461  T       0.00038257       0.00010882       0.00020630
H       57.45679293     177.89775313      60.10232794  T       0.00034100      -0.00095555      -0.00076261
H       54.92321167     181.65858699      65.27688447  T       0.00073483       0.00004686       0.00537246
H       52.18183062     182.66705210      65.44812681  T      -0.00014212      -0.00048804      -0.00052548
H       54.68725996     183.70361981      66.89794619  T       0.00403468      -0.00126255      -0.00091892
H       53.24385690     183.05005585      67.67569875  T      -0.00199126      -0.00237668       0.00110640
H       53.16386764     184.58583687      66.81719505  T      -0.00152773       0.00369699      -0.00218159
H       51.80875646     184.53258950      64.27000281  T      -0.00225020      -0.00152129      -0.00512083
H       54.04756542     185.52766576      62.67717712  T       0.00097986       0.00107426       0.00460771
H       52.31353020     185.69351211      60.70690913  T       0.01084089      -0.00345497      -0.00472737
H       50.87510262     184.13951598      62.62161640  T       0.01644393      -0.04514839      -0.00261335
H       53.09042274     182.90674634      61.74414133  T       0.00005913      -0.00181723       0.00028132
H       54.17581900     183.91793960      60.79400206  T       0.00140319       0.00242212       0.00114784
H       52.69519348     183.27328988      60.07059592  T       0.00000099       0.00121272      -0.00250120
H       53.97021247     187.62885829      61.94919115  T      -0.00207578       0.00171075      -0.00321998
H       51.78875306     189.34566907      63.01473415  T      -0.00755636      -0.00205731      -0.01740136
H       54.72431090     190.10745759      62.52905503  T       0.02247217       0.01593828      -0.01461786
H       54.14702879     189.64947112      64.11457966  T       0.01830982       0.00018151       0.00210585
H       53.51865921     191.11499871      63.32493077  T       0.00116702       0.02724938       0.02358972
H       55.79255488     178.63213039      69.12242854  T       0.00212456      -0.00086278      -0.00037932
H       55.45280350     179.83217726      71.76798631  T      -0.00274264       0.00853921      -0.00450682
H       53.45694866     179.19820388      69.51226830  T      -0.00054800      -0.00117383      -0.00061456
H       53.21122253     181.07322479      71.92281659  T       0.00178240       0.00118927       0.00050718
H       52.38333745     179.53338123      71.74642285  T       0.00022811      -0.00221337       0.00049864
H       51.99037680     180.87314695      70.67222802  T      -0.00111217       0.00038350      -0.00185726
H       54.88967593     181.81876034      70.18885295  T       0.00158152       0.00013936       0.00189476
H       53.62618031     181.63555592      68.97633085  T      -0.00115859       0.00090465      -0.00021842
H       55.17642552     180.82527252      68.76274500  T       0.00096755      -0.00183900      -0.00133553
H       54.23918050     178.83506901      73.45797789  T       0.00336030      -0.00152348       0.00091692
H       53.53532068     175.99752804      73.00998324  T      -0.00233633       0.00078519      -0.00390033
H       53.10042232     176.00346310      75.48513357  T      -0.00126927      -0.00160378       0.00071345
H       53.55688027     177.68543680      75.54638418  T      -0.00094870       0.00231351       0.00015042
H       55.87157900     177.10202027      74.75603165  T       0.00122487       0.00174269      -0.00071091
H       55.46785719     176.29374114      76.25119588  T      -0.00034840       0.00074812       0.00244768
H       54.68191897     174.29329399      74.75697471  T      -0.00176755      -0.00128312       0.00030383
H       55.52066551     175.06303579      73.44167638  T       0.00066961      -0.00071318      -0.00245854
H       57.11156141     174.67706870      76.00238426  T       0.00224851      -0.00044764       0.00099146
H       56.74246433     173.22616469      75.08991923  T      -0.00066803      -0.00138645      -0.00121042
H       57.92903891     175.66198791      73.83282352  T       0.01886312       0.00238257      -0.00386182
H       57.71309407     174.18913315      73.10728534  T      -0.01738012       0.00727950      -0.00596573
H       51.53921245     175.91336641      72.03151433  T      -0.00095710       0.00152247      -0.00207625
H       49.56627785     177.94303627      72.74665134  T      -0.00004993       0.00195388      -0.00225624
H       49.48385686     175.73303216      70.64478576  T       0.00001765      -0.00206884      -0.00114376
H       48.30387278     177.00320840      70.81653721  T      -0.00219735       0.00010387      -0.00035145
H       50.16592460     178.67822633      70.46770529  T       0.00068335       0.00264938       0.00001119
H       51.23633345     177.35061269      70.12897164  T       0.00252176       0.00044925      -0.00153965
H       49.73543670     176.64158671      68.24398927  T      -0.00101810      -0.00135109      -0.00208072
H       48.68457587     177.99948401      68.57676558  T      -0.00241360       0.00042173       0.00093198
H       50.58420683     179.58758656      68.12961743  T      -0.00025321       0.00132457       0.00151052
H       51.66799076     178.24528133      67.91194621  T       0.00258730       0.00084448      -0.00255586
H       49.49132050     179.03138454      66.09147241  T      -0.00196096      -0.00113619       0.00920525
H       50.13543796     177.52227550      66.05819511  T      -0.00548614       0.00111686       0.00233086
H       50.33102960     175.09431819      74.16010031  T      -0.00047319       0.00226115       0.00388962
H       47.51560093     174.51544932      74.81868091  T      -0.00036052       0.00141291      -0.00144800
H       49.93157159     172.70591641      75.15786986  T       0.00122535       0.00015226       0.00076673
H       46.94695928     172.27848576      75.74239288  T      -0.00135098       0.00114979      -0.00136153
H       48.20254313     172.45777248      76.95850687  T       0.00129988       0.00133282       0.00124062
H       48.19035183     171.04336306      75.90510906  T       0.00130617      -0.00160869      -0.00107075
H       47.48606013     172.51357273      73.29734147  T      -0.00196139       0.00102233       0.00162088
H       48.74241303     171.28634047      73.43452038  T       0.00108504      -0.00178090       0.00175488
H       49.12365595     172.88021469      72.77902348  T       0.00167228       0.00217668       0.00024552
H       46.91199209     175.35469867      76.77019981  T       0.00023003       0.00196617       0.00005894
H       49.14202202     176.20129746      78.57344498  T      -0.00036993       0.00548721       0.00170800
H       46.21707141     177.06808385      78.18962014  T      -0.00000096      -0.00017874      -0.00425407
H       48.73873570     178.79479784      78.23654833  T       0.00189966      -0.00013910       0.00141165
H       48.41176173     177.79897690      76.83544630  T       0.00090440       0.00032123      -0.00194219
H       48.16961801     178.07332785      80.35322671  T       0.00275560      -0.00170719      -0.00063060
H       46.70402263     177.15733461      80.66226300  T      -0.00240562      -0.00210260      -0.00023332
H       46.59714468     178.79177877      80.01694307  T      -0.00027047       0.00250622      -0.00177112
H       46.34815908     179.70381454      78.02099285  T      -0.00370152       0.00181411       0.00342131
H       46.18622272     178.78556168      76.53733772  T      -0.00315581      -0.00129241      -0.00375241
H       47.37670482     180.09350115      76.66739743  T       0.00118385       0.00439292      -0.00186679
H       46.00267979     177.07164815      72.41408616  T      -0.00768192       0.00341116      -0.00104994
H       44.15600535     179.35738748      72.21301681  T      -0.00164187      -0.00141725       0.00023423
H       46.30452124     180.67520083      72.09701790  T      -0.00051026       0.00180283      -0.00146351
H       47.24191839     179.20495608      72.01350947  T       0.00234783      -0.00041701      -0.00043499
H       46.73374766     178.63191580      74.28758028  T       0.00009183      -0.00221090      -0.00038361
H       45.38322412     179.73764441      74.34644859  T      -0.00198702      -0.00023489       0.00051916
H       49.78160640     181.15808183      74.65555268  T       0.00183750       0.00054784      -0.00036583
H       49.17299533     180.47645315      73.14703233  T       0.00135124      -0.00065055      -0.00129330
H       49.35509935     179.44804789      74.57386461  T       0.00174847      -0.00105292       0.00020305
H       43.58687580     180.23262372      70.28680785  T       0.00251287      -0.00049836       0.00373867
H       45.43608041     180.15718012      68.08233917  T       0.00030479       0.00718526       0.00088622
H       42.57318902     179.07027593      67.86588719  T      -0.00171687       0.00186643       0.00279123
H       44.01773104     178.08177698      67.70254694  T       0.00260024      -0.00156717       0.00148659
H       43.65129111     179.32372486      66.49362759  T       0.00128386       0.00316019      -0.00202179
H       44.97802430     182.09087196      66.75131057  T       0.00707104       0.00162110       0.00908198
H       42.78470305     183.82646770      67.76483353  T      -0.00135739       0.00015302       0.00053591
H       43.40821782     183.82329994      66.10358560  T      -0.00021237      -0.00015291      -0.00140348
H       43.41511170     185.68037961      68.71324028  T      -0.00013194      -0.00152342      -0.00128194
H       44.65644959     187.53452137      69.15463417  T       0.00011354       0.00116003       0.00136609
H       45.87889262     186.98579603      68.00413728  T       0.00044661       0.00045410      -0.00143860
H       47.82767375     186.44555774      68.96995058  T      -0.00032330      -0.00032202       0.00167905
H       48.00485940     184.59328128      70.96538153  T       0.00394951      -0.00169889      -0.00056371
H       49.96570079     186.93480992      70.48544604  T       0.00134622       0.00331736      -0.00203077
H       49.92346041     185.49115615      69.46228848  T      -0.00069988      -0.00274800      -0.00300848
H       50.41895007     185.37162890      71.16204443  T       0.00187065      -0.00183783       0.00243318
H       48.12904290     188.22470584      71.48650090  T      -0.00013855      -0.00006311       0.00003149
H       48.52898323     187.87185578      74.30363181  T       0.00184437      -0.00031122      -0.00105173
H       47.20189537     190.16607189      72.76293219  T      -0.00179671      -0.00122861      -0.00145780
H       48.92911402     190.03325371      73.06630952  T       0.00209402      -0.00148085      -0.00073209
H       47.80890344     190.28527118      74.41356784  T      -0.00058642      -0.00093711       0.00252651
H       40.75131746     177.51997845      63.84288015  T      -0.00596103       0.00308584      -0.00054665
H       42.80850978     179.08656059      64.06019118  T      -0.00532895       0.00120812       0.00428473
H       43.75466990     177.57565397      63.99696039  T       0.00112985       0.00153817       0.00171281
H       44.68383062     178.77183660      61.90869718  T      -0.00625960      -0.03718978       0.01815416
H       42.78310253     179.30122800      59.80081606  T      -0.00365230      -0.00526993       0.00457672
H       44.60298210     180.91354258      60.35211540  T      -0.00231673       0.00195542       0.00292480
H       44.86810542     180.18368804      58.75308286  T      -0.00146174      -0.00587543      -0.00149984
H       46.45690955     178.73953005      59.78107696  T       0.00794966       0.01436780      -0.00620633
H       45.06127447     176.88918724      61.04255998  T      -0.00706178       0.00838244      -0.01101350
H       44.94632781     175.53266452      58.42785031  T      -0.00241588       0.00022689      -0.00098515
H       45.97079603     175.06213177      59.75368639  T      -0.00472335      -0.00812208       0.00503532
H       49.24858108     174.43437606      55.84194920  T      -0.00071260       0.00127703       0.00129906
H       48.16568003     177.02393757      55.03193242  T      -0.00045301      -0.00015383      -0.00040534
H       48.55629657     175.67910520      57.75093814  T       0.00008896      -0.00035470       0.00251830
H       47.04646344     175.73877103      56.85587478  T      -0.00184178      -0.00087133      -0.00018852
H       49.53369254     178.66454334      54.63772638  T       0.00047176       0.00086017      -0.00057982
H       52.23321939     178.65487412      55.37789200  T       0.00091175       0.00022901       0.00041106
H       50.42116117     181.07461472      54.86841592  T      -0.00228673      -0.00066606       0.00159223
H       51.26033689     180.16394996      53.61478844  T       0.00035934      -0.00250499      -0.00129089
H       52.17924949     181.10378514      54.79875186  T       0.00195342       0.00011744       0.00214310
H       49.44737939     179.41199295      57.39419767  T      -0.00195492      -0.00166074      -0.00214911
H       51.26303855     180.92778139      59.17173687  T      -0.00136765       0.00355579      -0.00185095
H       48.18713490     180.75767494      59.23506543  T       0.00238234      -0.00567401       0.00140958
H       49.15375368     181.71177925      60.34778331  T       0.00062048       0.00264105       0.00059260
H       47.93301600     181.41631288      56.93392294  T      -0.00017524      -0.00137081       0.00179173
H       50.42904631     183.59217335      59.52278040  T       0.00102210       0.00080534       0.00059782
H       48.12643745     183.22682757      55.23317053  T      -0.00494631      -0.00993720       0.00275440
H       50.77642621     185.27795494      57.76231189  T       0.00006835       0.00090793      -0.00033019
H       49.12340269     185.16575383      54.68728736  T      -0.00195851      -0.00224633       0.00143690
H       50.81927295     177.73324100      58.76106647  T       0.00031047      -0.00082951      -0.00373721
H       51.06286075     177.47380730      61.70385528  T       0.00656978       0.00178406      -0.00021978
H       50.15295583     175.12539647      61.52877354  T      -0.00520888       0.00060107       0.00257006
H       49.86817753     175.39383410      59.80947202  T      -0.00858174       0.00045150      -0.00013528
H       48.21884922     176.17122813      61.90915034  T      -0.00358496       0.01788905       0.01441116
H       58.63291395     191.29124628      73.25796617  T      -0.00175568       0.00148802       0.00065336
H       56.04265154     190.06465753      74.01053229  T       0.00018396      -0.00194415      -0.00291988
H       55.42394060     192.44593394      74.76897990  T      -0.00199649       0.00020877      -0.00010811
H       57.05839066     192.94569506      74.43694411  T       0.00150093       0.00149864      -0.00069281
H       58.93524314     191.81057952      75.70630199  T       0.00111163       0.00013509       0.00019271
H       54.88323751     191.50615919      76.81894037  T      -0.00108902      -0.00019621       0.00087592
H       59.63002919     191.06397106      77.94167109  T       0.00076315       0.00037407      -0.00044150
H       55.50158578     190.80882639      79.07733335  T      -0.00063669       0.00012556       0.00042404
H       57.88449222     190.53869457      79.63617143  T      -0.00016800       0.00005561       0.00079318
H       54.16786183     190.89019562      72.86587602  T       0.00100466      -0.01120531      -0.00651710
H       54.85064224     192.49936307      70.55486570  T      -0.00232334       0.00060999      -0.00303936
H       52.93951849     191.66891998      69.37417535  T       0.00349482       0.00341357      -0.00146072
H       53.58413212     190.24699167      70.16168641  T       0.00321468      -0.00057290      -0.00035830
H       53.27850638     195.96019164      72.32084741  T       0.00736808      -0.01035363      -0.00126543
H       50.85741691     196.10227824      70.43368398  T      -0.00189922      -0.00051215      -0.00121722
H       51.96348892     197.41412628      70.85494770  T       0.00040897       0.00252363      -0.00207761
H       52.37889435     196.18231419      68.53366348  T      -0.00119578       0.00189399      -0.00156327
H       53.78146560     196.40502305      69.58726361  T       0.00122311       0.00274284       0.00024533
H       53.84693917     194.01250562      69.30772301  T       0.00114274       0.00378448      -0.00622713
H       52.07312808     193.87654076      69.24866444  T      -0.00115274       0.00546616      -0.00838261
H       44.90341767     170.89588693      68.27017556  T      -0.00027898      -0.00051267      -0.00007097
H       42.46253253     170.13868741      66.68643195  T       0.00097037       0.00023140      -0.00237705
H       42.52382376     170.01061241      68.44793382  T      -0.00180776       0.00215073       0.00070878
H       43.54744956     168.96280474      67.44215860  T       0.00108737      -0.00097261       0.00160704
H       48.27313444     172.63858978      67.74673774  T      -0.00087281      -0.00194089      -0.00327852
H       49.08883281     172.51244849      69.31166022  T       0.00003089       0.00386714      -0.00034404
H       48.77993551     171.05796176      68.35540408  T       0.00214267      -0.00150856       0.00254496
H       50.65585453     189.31856333      61.00503718  T       0.00023300      -0.00402448      -0.00220148
H       52.16377348     190.08749066      58.55594859  T       0.00292879       0.00100006       0.00050315
H       50.40819614     190.21784438      58.74570956  T      -0.00179652       0.00206929       0.00095185
H       51.18052125     188.62124899      58.63007139  T      -0.00046770      -0.00316913       0.00016483
H       58.08425159     178.35423721      68.53460178  T      -0.00170861       0.00071524      -0.00127423
H       58.49200861     176.98085898      69.56905439  T      -0.00063143      -0.00184244       0.00139460
H       59.31256323     178.52703048      69.79361503  T       0.00093523       0.00167703       0.00146136
H       49.27966035     175.33994697      80.56833180  T       0.00019988      -0.00094013      -0.00034413
H       47.06281544     173.60645537      81.49463788  T      -0.00204935       0.00121946      -0.00067409
H       48.15828025     174.48971034      82.56558315  T       0.00164508       0.00178584       0.00050057
H       48.76034955     173.12813255      81.59516820  T       0.00109900      -0.00139540      -0.00217901
H       45.40979754     175.33633458      73.67015072  T       0.00143395       0.00152477       0.00051593
H       43.88812938     174.83354757      72.92266805  T      -0.00085207      -0.00096073      -0.00353923
H       43.90314663     175.41494460      74.58964404  T      -0.00221014       0.00093063       0.00192229
H       45.52180927     187.82173206      72.33037916  T      -0.00008414      -0.00685613      -0.01191387
H       43.93804236     187.94334687      74.84723307  T      -0.00041696       0.00157180       0.00110092
H       43.80197817     186.63708462      73.66532125  T       0.00128234      -0.00382545       0.00048947
H       43.27108446     188.28066838      73.23846440  T      -0.00236713       0.00115407      -0.00445596
H       39.80850350     175.55251691      64.74327291  T       0.00190565      -0.00280554      -0.00349060
H       40.36850952     175.86775574      66.39397760  T      -0.00104137       0.00351802      -0.00370915
H       40.84675870     174.38338868      65.57150999  T       0.00327785      -0.00007064       0.00346954
H       42.72238903     175.64470772      60.83743000  T      -0.00216705       0.00316900      -0.00089324
H       42.08521129     172.76172958      60.45319025  T       0.00073823      -0.00130343      -0.00124931
H       40.89396698     174.04856169      60.71087907  T      -0.00095972       0.00124809      -0.00107898
H       41.97536793     173.55431669      62.03332607  T       0.00023171       0.00036843       0.00187644
H       49.49978552     173.43757641      52.34230890  T       0.00194805       0.00091174      -0.00110534
H       48.36891617     172.93223716      53.60024241  T      -0.00219442       0.00029244      -0.00123760
H       50.10440164     172.99138112      53.94100805  T       0.00012442      -0.00065424       0.00210887
H       52.68921524     176.11728445      62.43627819  T       0.00039976      -0.00013370       0.00012648
H       54.82461392     175.55540758      60.36808558  T       0.00075950       0.00242423      -0.00097559
H       54.44972293     174.35370156      61.61446701  T      -0.00052697      -0.00184748      -0.00224082
H       55.16264552     175.91759511      62.06838342  T       0.00037048      -0.00077418       0.00218632
H       60.53379432     190.21446177      73.88900261  T       0.00061638       0.00132654       0.00215885
H       60.36946564     188.63226277      73.11773143  T      -0.00002476       0.00094893      -0.00232893
H       60.37455763     188.75671133      74.87593238  T      -0.00027722      -0.00262484       0.00036999
H       50.89741922     193.39872320      72.35656596  T      -0.00350900       0.00295540      -0.00763305
H       49.04283178     195.09754746      73.97710111  T      -0.00339799       0.00952912       0.00090131
H       49.76663315     193.59622088      74.56914443  T       0.00355396       0.00122847      -0.00105566
H       48.59902098     193.54992917      73.22680559  T       0.00691159       0.00111628       0.00233251
H       51.46200514     186.91702478      69.22397475  T       0.00145164       0.00026893       0.00115329
H       54.64822236     189.28212188      68.01277962  T       0.00207002      -0.00192683      -0.00011308
H       53.51641977     189.68727861      65.84645855  T       0.00358906      -0.00336386       0.00040896
H       50.54581627     186.80254507      65.01050341  T      -0.00032185      -0.00094506      -0.00032235
H       47.84157277     186.05403620      65.90950275  T      -0.00147416       0.00019443      -0.00097501
H       48.10284365     187.22176210      63.72122480  T       0.00000580       0.00207280      -0.00163803
H       49.33855199     186.08705897      63.24306067  T       0.00250875      -0.00198361       0.00041950
H       45.77025747     185.86545268      64.48113728  T      -0.00058329       0.00241309      -0.00125914
H       44.09134941     184.44528763      63.36263498  T      -0.00374457       0.00906741      -0.00546184
H       44.67384071     183.00734226      61.47795779  T      -0.00464484       0.02067430      -0.01772428
H       46.99900456     183.04146521      60.60053811  T      -0.00374554       0.00922278      -0.01170579
H       48.69978518     184.48472897      61.71336006  T      -0.00127273       0.00209468      -0.00197212
H       47.47346003     183.84785439      66.49994191  T       0.00003727      -0.00128631      -0.00100338
H       49.65086866     181.90749854      65.97330979  T      -0.00007565      -0.00148923      -0.00303345
H       48.47687541     180.63698297      67.78604680  T       0.00102194      -0.00189560       0.00032753
H       47.18275359     181.80382664      67.80951928  T      -0.00222198       0.00017947      -0.00012215
H       48.56936467     183.52053478      68.72584640  T      -0.00044311       0.00039927       0.00250066
H       50.97432791     181.67218142      68.34508184  T       0.00251874      -0.00556877      -0.00004038
H       51.00570051     183.17224845      69.26157632  T       0.00177231       0.00322426       0.00510246
H       50.68182713     183.20350127      67.53147607  T       0.00061393       0.00339136      -0.00478306
H       49.18577911     180.85262069      70.10579778  T       0.00152024      -0.00137997      -0.00068366
H       47.72639369     181.80727944      70.32832830  T      -0.00209933      -0.00002388      -0.00077777
H       49.28265838     182.42998281      70.87674961  T       0.00083373       0.00189487       0.00072808
H       55.95840482     179.06865632      61.56471886  T      -0.00359559       0.00241909       0.00315028
H       58.83528610     174.34528183      74.32888780  T       0.00114825       0.01712761       0.00312515
H       50.88482406     177.38060496      64.08329951  T      -0.00044279      -0.00008376      -0.00129600
H       48.76767228     182.21938108      63.73606609  T      -0.01777733      -0.00801939      -0.00153863
H       46.14872588     182.30515172      64.54559930  T       0.01923390      -0.02728519       0.02700687
H       44.36859915     180.44797251      62.87315540  T      -0.01596642      -0.00625344       0.01333373
H       45.01429448     180.73096667      64.25402143  T       0.01491518       0.03587782      -0.02267557
H       49.46160689     189.75645412      70.16201908  T       0.00015002      -0.00012045      -0.00052058
H       48.77887996     188.67892055      69.31422676  T       0.00104357      -0.00007134       0.00035408
H       51.07323063     181.50506173      63.72271491  T      -0.00578187       0.00424607      -0.01551802
H       50.55712370     181.09920100      62.33268611  T      -0.01894050      -0.01935721       0.02197327
