533
Properties=species:S:1:pos:R:3:move_mask:L:1:forces:R:3 6V8_MS_A_THRN=T |=T Arg19=T repaired=T +=T controlled=T bridge=T water=T charge=-1 energy=-2482.358915987072 stress="0.0 0.0 0.0 0.0 0.0 0.0 0.0 0.0 0.0" pbc="F F F"
N       47.86000000     179.16600000      62.75300000  F       0.19480204      -0.14266693      -0.86223703
C       47.74100000     178.18400000      63.82800000  F      -0.20174700       0.18637019       0.72511912
C       46.89800000     177.01300000      63.45800000  F      -0.68089620       1.04251002      -1.09075271
O       45.92400000     177.16600000      62.74200000  F      -0.00494084       0.00852711       0.17457301
C       47.11500000     178.90200000      65.03000000  F       0.61340835       0.05906309       1.07559081
O       48.05800000     179.83300000      65.54700000  F      -0.28587967       0.27360081       0.18272677
C       46.75800000     177.97700000      66.20200000  F      -0.14793877      -0.21893100      -0.41595428
N       47.29700000     175.82200000      63.92600000  F       0.65675779      -1.25292949      -0.00780534
C       46.45400000     174.65200000      63.87400000  F       0.22267680      -0.44475027       0.61492672
C       46.46600000     174.00900000      65.26500000  F       1.08172768       1.09548912      -0.55629622
O       47.51200000     173.74100000      65.82500000  F       0.05796688      -0.37464403      -0.28995401
C       46.85700000     173.64600000      62.77200000  F      -0.69512901      -0.08307154      -0.14023707
O       47.03300000     174.32800000      61.52200000  F      -0.00296208       0.24230510       0.53237594
C       45.74000000     172.58800000      62.63800000  F       0.45362615       0.13259657       0.00186089
N       45.27100000     173.88600000      65.86300000  F      -1.07841232      -0.14159912       0.55751384
C       45.10500000     173.16100000      67.09700000  F      -0.35752574      -0.30661346       0.11868736
C       44.05700000     172.10600000      66.86000000  F      -1.49970540       2.09347823      -2.61630298
O       43.14400000     172.33000000      66.03400000  F       1.43212454      -0.46914484       1.52112574
C       44.68600000     174.04700000      68.28800000  F       0.09458140       0.15326524      -0.53929477
O       43.45900000     174.68700000      68.01900000  F      -0.52941487      -0.05744501      -0.02391021
C       45.72600000     175.09400000      68.54400000  F       0.57278077       0.33914136       0.26667538
N       50.41500000     173.24300000      66.68500000  F       0.22138826       0.71194238      -1.04203356
C       51.64600000     173.72200000      66.09000000  F       0.16005283       0.30618283       0.84730600
C       52.22400000     174.79300000      67.03300000  F      -1.79466327      -0.87802954       1.46318089
O       51.71300000     174.99200000      68.14900000  F       0.79536309      -0.13264370      -1.69743051
C       51.44500000     174.21900000      64.66800000  F      -0.50643141       1.43982931      -0.41837642
C       50.85100000     175.67100000      64.62000000  F       0.73439173      -0.80511900       0.20536270
O       49.89900000     175.90100000      65.33700000  F      -1.00614324      -0.62732983       0.65555054
O       51.36800000     176.53800000      63.92800000  F       0.93528028      -0.26833674      -0.67247908
N       53.29800000     175.45600000      66.58800000  F       0.57070861       0.80480660      -1.15356724
C       53.98000000     176.37900000      67.42500000  F       0.17745092       0.56566527       0.73779860
C       54.42000000     177.68400000      66.77600000  F       0.97500359       0.85019288       1.83861414
O       55.29400000     178.39100000      67.32700000  F      -1.33335670      -1.48492101      -1.44104996
C       55.14400000     175.64800000      68.02800000  F       0.25199027      -0.01245381       0.75197040
O       56.10400000     175.32300000      67.08600000  F       0.32710834      -0.02779566      -0.29898379
N       53.73900000     178.07000000      65.67300000  F       0.02385105       0.02656270      -0.63999843
C       54.13100000     179.24900000      64.92000000  F      -0.63233436       0.20885055      -0.11725977
C       53.30200000     180.45100000      65.35500000  F      -0.52150267      -2.85199274      -0.06465629
O       52.12100000     180.31100000      65.52100000  F      -0.88979447       0.13171321       0.00338309
C       53.87800000     179.01400000      63.43500000  F       0.07903165       0.35678583      -0.34035061
C       54.02700000     180.29000000      62.55900000  F      -0.12555503      -0.43343624       0.82944894
C       54.11000000     179.93900000      61.10900000  F      -0.03889851      -0.05002904      -0.57992227
N       55.30700000     179.17700000      60.79000000  F      -0.27313737       0.19153425       0.75710683
C       55.63600000     178.74900000      59.56100000  F       0.90664219      -0.16945688       0.52706382
N       54.89600000     179.02000000      58.51500000  F      -1.05230459       0.19279867      -1.39153855
N       56.79600000     178.10500000      59.36800000  F       0.51667438      -0.35667627       0.10464479
N       53.93000000     181.57900000      65.50300000  F       2.08896645       2.54846735      -0.07042725
C       53.26600000     182.85600000      65.52000000  F      -0.06142272       0.42341079       0.08265440
C       53.69100000     183.73000000      64.34400000  F       2.25745196      -0.50269992       1.19324571
O       54.86600000     183.78000000      63.98800000  F      -0.89951194      -0.55413814      -0.16585673
C       53.60800000     183.58900000      66.80600000  F      -0.28652640       0.14115262      -0.05994720
N       52.76300000     184.56000000      63.88700000  F      -2.12669762       0.63004069      -0.38165745
C       52.95600000     185.45200000      62.79600000  F       0.46662261       0.43900624      -0.69402679
C       52.44100000     186.84600000      63.06900000  F      -0.98426672      -1.20150984       0.59377236
O       51.42100000     187.04100000      63.69000000  F      -0.07064600      -0.16331069      -0.10864751
C       52.35300000     184.90300000      61.47200000  F       0.21248406      -0.86887722       0.37020456
O       51.03100000     184.45400000      61.69800000  F      -0.51379319       0.57892244       0.12113098
C       53.12900000     183.68100000      60.98200000  F       0.32161920       0.29827158      -0.07973009
N       53.14600000     187.82700000      62.51900000  F       1.27390526       1.53589975      -0.52460786
C       52.76100000     189.24900000      62.50900000  F       0.57306102      -0.69915470      -0.46661645
C       52.67800000     189.56500000      61.02800000  F       1.59009242       0.89077529       0.53329817
O       53.69300000     189.79000000      60.39100000  F      -0.08578415      -0.31911656       0.22400264
C       53.84300000     190.08700000      63.16900000  F      -0.25535968       0.01123976       0.14489254
N       56.06200000     178.77600000      70.10600000  F      -0.79110596       0.72568657      -1.05529427
C       55.01900000     179.19100000      70.99100000  F      -0.88961610      -0.86562432       0.07950725
C       54.41400000     177.93400000      71.61200000  F      -0.13202947      -0.65878377      -2.19954027
O       54.12100000     176.98500000      70.87400000  F       0.42294410       0.99887309       0.81334223
C       53.88000000     179.91700000      70.23400000  F       0.46297593       0.12756273       0.19832799
C       52.80800000     180.37200000      71.19200000  F      -0.47493835      -0.08437291       0.33556618
C       54.42500000     181.11400000      69.49900000  F       0.18799211       0.16517043      -0.37334371
N       54.14500000     177.97100000      72.92100000  F      -0.14833056      -0.14641029       1.52514056
C       53.36600000     176.92500000      73.57300000  F      -0.71677365       0.33899002      -0.23597624
C       51.87300000     177.28800000      73.49500000  F       2.57979638      -0.35839160       0.24987796
O       51.45600000     178.15600000      74.18100000  F      -0.84362814       1.94901961       1.46706256
C       53.75900000     176.74600000      75.01900000  F       0.09924877      -0.02762255       0.21242582
C       55.21400000     176.33700000      75.18500000  F       0.23860674      -0.32311023      -0.12883038
C       55.51700000     174.96900000      74.53300000  F      -0.11327130      -0.11496491       0.48174626
C       56.83900000     174.31600000      75.00400000  F      -0.33770104       0.38880332      -0.38060987
N       57.89700000     174.64600000      74.01500000  F       0.31133095      -0.00645004       0.00555365
N       51.13400000     176.62500000      72.64300000  F      -1.43147149      -1.87104601      -1.81196143
C       49.71600000     176.90100000      72.43200000  F      -0.35676000       0.20751859      -0.13622680
C       48.77200000     176.04900000      73.26900000  F      -3.31181504       2.15813087      -0.89771408
O       47.52800000     176.28000000      73.26500000  F       2.83007682      -0.53160400      -0.21989744
C       49.37100000     176.78000000      70.95000000  F      -0.84471003      -0.65386291       0.51644550
C       50.18100000     177.65300000      70.07500000  F       0.74742392       0.64812439       0.12060981
C       49.72600000     177.66300000      68.64600000  F      -0.02455349       0.02494975      -0.60141411
C       50.62200000     178.54800000      67.79200000  F      -0.21710985      -0.16267871      -1.00567898
N       50.30600000     178.48400000      66.33800000  F       0.56426812       0.10857314       1.08885908
N       49.31500000     175.10600000      74.01100000  F       1.29007616      -1.72668532       1.42947179
C       48.58100000     174.35100000      75.03000000  F      -0.25479248       0.14435246      -0.31777060
C       48.87400000     174.86500000      76.41100000  F      -0.32680847       0.38954225      -1.86890322
O       49.97800000     174.85800000      76.83600000  F       2.47678783      -0.51045523       0.80392322
C       48.86300000     172.86200000      74.93600000  F      -0.30652375      -0.31448236      -0.31499664
C       48.00700000     172.11800000      75.94000000  F      -0.00293493      -0.23288305       0.39828982
C       48.53800000     172.35300000      73.53300000  F       0.22280746       0.05350818      -0.12550385
N       47.88300000     175.43300000      77.07900000  F      -1.72959325       0.81108219       1.62786305
C       48.07500000     175.99100000      78.43700000  F      -1.24782239      -0.86545783       0.03545131
C       47.60000000     174.96900000      79.48700000  F      -2.81120062       0.43174967      -2.57103028
O       46.50400000     174.40000000      79.36000000  F       1.51713953       0.58486479       0.02058532
C       47.23000000     177.28900000      78.56000000  F       1.06041912      -0.45374072       0.49134779
C       47.92700000     178.30100000      77.68600000  F       0.05145744       0.03351163      -0.58952397
C       47.16900000     177.86500000      79.97500000  F      -0.21512644      -0.40712828       0.22051271
C       46.91300000     179.26200000      77.19800000  F      -0.39156833       0.84509520      -0.10306395
N       45.06900000     177.49700000      72.37500000  F       1.99013172       1.10124163      -1.34741936
C       45.08700000     178.88400000      71.87400000  F       0.80126130      -0.43542547       0.22455818
C       45.16900000     178.92200000      70.35700000  F       3.18010394      -1.61212204       0.19754109
O       46.09600000     178.35500000      69.73900000  F      -1.55223993       0.62783775       1.05641062
C       46.33400000     179.63700000      72.44600000  F      -0.66909465       0.01828222      -0.52103494
C       46.39300000     179.61300000      73.94600000  F       0.08297364      -0.24341861       0.39782019
S       47.39400000     180.86300000      74.73100000  F       0.69355935       0.10600624      -0.56164658
C       49.08400000     180.44300000      74.22900000  F      -0.75223347      -0.02406915       0.08232661
N       44.31000000     179.72300000      69.76300000  F      -1.64534907       1.27233193      -0.61772905
C       44.37900000     180.09100000      68.37300000  F      -0.71987580       0.66194044      -0.10151257
C       43.70300000     181.47000000      68.24700000  F      -0.14041787      -0.91544951       1.47300186
O       42.76100000     181.74200000      68.96300000  F      -0.16802307      -0.24996168      -0.15866552
C       43.61800000     179.08600000      67.55700000  F       0.04198352      -0.28459325      -0.32183343
N       44.21300000     182.35000000      67.39100000  F       0.57912399       1.15548768      -1.77861205
C       43.68400000     183.70300000      67.15500000  F       0.04408633      -0.92048543       0.09405661
C       44.74000000     184.66900000      67.54400000  F       1.91496605      -2.21970375      -0.57536036
O       45.90700000     184.42800000      67.24000000  F      -1.11751722       0.77122769      -0.13279936
N       44.35800000     185.66900000      68.31100000  F      -1.87937483       1.65300987       0.73714944
C       45.21700000     186.65900000      68.81200000  F       1.02994971       0.12545822       0.59395513
C       46.03400000     186.08700000      69.94800000  F      -1.39430500       0.25271362       0.15816695
O       45.50900000     185.57800000      70.91900000  F      -0.26223794       0.05157203      -0.33340187
N       47.35700000     186.20700000      69.84900000  F       1.70642063       0.01259924       0.03842823
C       48.24700000     185.66100000      70.87300000  F       0.84045732       0.61130978       0.21717671
C       48.00300000     186.30600000      72.24300000  F       0.17178391      -2.52819520       0.76183929
O       47.89400000     185.60300000      73.25900000  F       0.19527594       0.61906749      -1.42751357
C       49.74500000     185.87000000      70.46700000  F      -0.92336550      -0.21384522       0.17165735
N       47.99700000     187.63100000      72.31600000  F      -0.32111516       1.40013326       0.25879340
C       47.79000000     188.29000000      73.60400000  F      -1.05865602      -0.15887273       0.16034984
C       46.37300000     187.97100000      74.17700000  F       2.02611249      -0.49501711       0.57448286
O       46.25200000     187.68900000      75.35200000  F       0.02115205       0.45224195       0.15810114
C       47.94400000     189.77600000      73.45900000  F       0.22531663       0.34237833       0.03831967
N       41.67600000     177.26100000      64.19100000  F       1.34678604       1.44481729      -0.58441854
C       42.83500000     178.06900000      63.66600000  F      -1.21829677      -1.35400500      -0.30657740
C       42.79500000     178.05500000      62.14600000  F      -3.30969915      -3.04546680       0.32247164
O       41.98100000     177.33200000      61.51700000  F       1.30862575       1.63642862       1.38651460
N       43.70000000     178.80000000      61.55400000  F       2.85529837       1.72668679      -0.60876353
C       43.77700000     178.96000000      60.13300000  F      -1.14948585      -0.53659077      -0.55811210
C       44.07100000     177.67100000      59.40100000  F      -1.44980080       0.51114893      -1.66014029
O       43.68700000     177.52300000      58.23400000  F       0.61254054       0.25326265       1.30254056
C       44.80300000     179.97300000      59.82800000  F       1.64254073       0.00182185      -0.23730829
O       46.08600000     179.49100000      60.29100000  F      -0.73125242       0.99177478       0.24210632
N       44.71300000     176.72000000      60.08000000  F       0.58702030      -1.39336958       0.86051391
C       44.95800000     175.39500000      59.51400000  F       0.26631344      -0.02918212      -0.51837384
C       43.97000000     174.30600000      59.82900000  F       0.64955640      -0.93749322      -1.26832832
O       44.14200000     173.16500000      59.37800000  F      -0.11929354       1.31170946       0.81971296
N       49.08300000     175.18400000      55.16800000  F       0.16918582      -0.31299885       1.64678756
C       48.77300000     176.46600000      55.76000000  F       0.13292162       0.17060500       0.28560299
C       50.03300000     177.26300000      56.05900000  F      -0.75475895      -1.04641790       1.00344345
O       50.77800000     176.91400000      56.95100000  F       0.03686053      -0.19985635      -0.28266476
C       47.97300000     176.28200000      57.05300000  F      -0.31128246       0.81218522       0.25240155
C       47.64800000     177.61700000      57.74200000  F       0.23751324       1.04341207       0.93855073
O       47.64400000     178.66700000      57.04600000  F      -0.09870223      -1.45232451       0.76181009
O       47.47400000     177.60000000      58.99700000  F       0.11913246      -0.28668561      -2.57453811
N       50.18500000     178.39700000      55.37800000  F       0.57359492       1.41149287      -0.77541834
C       51.34500000     179.27200000      55.58400000  F       0.23602583       0.28386923       0.67252225
C       51.47100000     179.75500000      57.04700000  F       3.07845108      -0.37586847      -0.66082758
O       52.59100000     180.04300000      57.53400000  F      -2.41346379      -0.23100416      -1.12846980
C       51.30300000     180.47000000      54.66000000  F       0.05165503      -0.00524498      -0.04948938
N       50.33800000     179.82100000      57.73300000  F      -1.16202573       0.19031776       1.12854837
C       50.34100000     180.33300000      59.08900000  F      -0.74676522       0.42761615       0.67025488
C       50.44500000     179.24900000      60.14900000  F      -0.49591476       2.06976283       1.87172477
O       50.31300000     179.56900000      61.34700000  F       0.16716412      -0.68116614      -1.98700967
C       49.12600000     181.31500000      59.32700000  F       0.90977762      -1.65568049       0.39751085
C       49.21100000     182.37300000      58.33900000  F      -1.47528326      -0.27300357      -0.76869374
C       48.53100000     182.29000000      57.13500000  F       0.01305447       0.43888643      -0.90363928
C       49.95400000     183.46800000      58.56100000  F       1.47742101       1.49928197       0.36704915
C       48.65500000     183.29900000      56.16700000  F      -1.20334301      -2.30994041       0.57139554
C       50.14300000     184.42600000      57.58500000  F       0.25475031      -0.03441212       1.44887425
C       49.46900000     184.34700000      56.40300000  F       0.64140642       0.93485282      -0.52546092
O       49.67000000     185.32700000      55.48700000  F       0.04822402       0.72753042      -0.71482244
N       50.74300000     178.00900000      59.76100000  F       0.10851265      -1.32806092      -0.37115448
C       51.02000000     176.97300000      60.72600000  F       0.46583101      -0.63380327      -0.22386889
C       52.40300000     176.36000000      60.41500000  F       0.27039887       0.23583699      -4.70446377
O       52.83300000     176.22500000      59.18500000  F      -1.63160101       0.43536169       4.81201488
C       49.91600000     175.89400000      60.78300000  F      -0.46677413       0.52517955      -0.04598240
O       48.59300000     176.43000000      61.02500000  F       1.04722831      -0.26463616       0.07096933
N       58.01900000     190.54800000      73.59500000  F      -1.15469565       2.87063568      -0.74991627
C       56.60800000     190.95700000      73.70700000  F       0.35510580       0.27189092       0.52091048
C       56.06900000     191.48400000      72.40000000  F       0.99388318      -0.41987434       0.95943784
O       56.75700000     192.12400000      71.66200000  F       1.07839760       0.77781411      -0.75683164
C       56.46100000     192.09100000      74.76800000  F      -0.21535896      -0.23599743      -0.87928197
C       56.86500000     191.70400000      76.13100000  F       0.27695320      -0.01300176      -0.13740338
C       58.19500000     191.58900000      76.45600000  F       0.49515748       0.05166266      -0.29089229
C       55.92500000     191.41800000      77.08200000  F      -0.99446106       0.03975305       0.09053438
C       58.58700000     191.17200000      77.69800000  F      -0.93446986      -0.37487404       1.09685597
C       56.26300000     191.02800000      78.34700000  F       0.29085275      -0.24406891       0.20588144
C       57.59400000     190.87200000      78.65400000  F       0.99264381       0.28643680      -0.46152803
N       54.78400000     191.26700000      72.14300000  F      -2.24531371      -0.60245575       0.22787718
C       54.06500000     192.08500000      71.20700000  F      -0.48023231       0.71945275       0.04677312
C       53.39300000     193.30200000      71.92900000  F       1.58110344      -1.83941234       0.41952989
O       53.42100000     193.43500000      73.14300000  F       0.22955056      -0.52013245      -0.43265544
C       53.11400000     191.21700000      70.35300000  F      -0.35191879       0.26202370       0.39840884
C       51.76300000     190.96700000      70.99500000  F      -1.66955727      -0.71473087      -0.01282943
O       51.42500000     191.44700000      72.08100000  F       0.84438342       0.37912345      -0.03725903
O       50.94700000     190.26100000      70.36900000  F       2.09302459       0.65696045      -0.11579513
N       52.85200000     194.26100000      71.16400000  F      -0.99199642       0.69253280       0.32860531
C       52.41200000     195.50300000      71.82400000  F      -0.99722966       0.39062594       0.18429371
C       51.27800000     195.35200000      72.84000000  F       1.93634666       1.79893403       0.22009001
O       51.11000000     196.21600000      73.68500000  F      -0.04444894      -0.01472948      -0.37618499
C       51.90800000     196.33900000      70.63800000  F      -0.06911322       1.16993652       0.85810462
C       52.79800000     195.92400000      69.51600000  F      -0.00245881      -0.13135517      -1.46081453
C       52.91000000     194.41600000      69.70300000  F       0.56562228      -0.37571126      -0.38169623
N       44.18000000     170.99300000      67.55100000  F      -0.49175969      -2.46474313       1.26194809
C       43.11900000     169.96000000      67.53700000  F       0.52086664       0.51350333      -0.07234817
C       49.04800000     172.11100000      68.30100000  F       1.18914911      -0.19912642      -0.31381491
C       50.41400000     172.27400000      67.61400000  F       0.99082997      -2.62900241       1.87124417
O       51.40800000     171.53300000      67.90800000  F      -2.70222309       2.11975345      -0.78309939
N       51.47700000     189.61000000      60.46800000  F      -2.16662761      -0.26386801      -0.99808788
C       51.28700000     189.63400000      59.01600000  F       0.24488237       0.10322369       0.38134485
C       58.36100000     178.06100000      69.54600000  F      -0.62795371       0.36701284       0.43460054
C       57.29000000     178.48500000      70.54800000  F       1.30331076      -1.23821258      -1.37792541
O       57.54400000     178.47200000      71.71200000  F       0.68373199       0.27148461       1.84117400
N       48.37100000     174.86500000      80.53200000  F       2.02965544      -0.14489121       1.97802768
C       48.08100000     173.98100000      81.60400000  F      -0.26800383      -0.39336100       0.35979312
C       44.34400000     175.54900000      73.60400000  F      -0.24989475       0.85004961      -0.00800800
C       44.10400000     176.97400000      73.11200000  F      -2.08513357      -1.27997281       0.93861731
O       43.04800000     177.55200000      73.33400000  F       0.54242586      -0.27387163       0.11287296
N       45.34300000     187.98800000      73.32800000  F      -0.97004841       0.26899224      -1.12275928
C       44.01100000     187.70000000      73.78800000  F      -0.03014947      -0.20148796      -0.01179486
C       40.64600000     175.44500000      65.43000000  F       0.84924498       0.00876780      -0.21024858
C       41.89000000     176.12400000      64.89200000  F       1.98342728      -1.97537863       1.32988163
O       43.04500000     175.65300000      65.14300000  F      -3.02065694       1.37008280      -0.63928384
N       42.87500000     174.66500000      60.52700000  F      -0.53395892       0.35524309       0.67755187
C       41.90000000     173.71000000      60.95700000  F      -0.08299421      -0.20647216      -0.00404289
C       49.29000000     173.47900000      53.40900000  F       0.05562295       1.19400819       0.31644706
C       49.14800000     174.95100000      53.85500000  F      -0.07988501      -1.92894363      -1.11870889
O       49.04600000     175.81700000      53.03200000  F      -0.04888145       0.79621716      -0.71826692
N       53.10200000     176.00200000      61.50000000  F       1.52994467      -0.73611942       0.60048146
C       54.47400000     175.41800000      61.39000000  F      -0.99673930       0.44394688       0.02693100
C       60.05000000     189.24300000      73.95900000  F      -1.63046715      -0.05497944       0.07418319
C       58.49000000     189.38000000      73.95400000  F       2.99933001      -1.77375003      -0.02238226
O       57.80600000     188.43100000      74.22400000  F      -0.53198555      -0.64540583       0.56860696
N       50.51300000     194.28900000      72.73400000  F      -1.85748926      -2.03648401       0.19889666
C       49.41200000     194.11700000      73.68000000  F       0.33248984      -0.10699399      -0.24550618
O       44.57000000     181.16200000      63.51200000  F      -0.30438589      -0.17500011      -0.45601519
O       48.60300000     189.36900000      69.98000000  F      -1.09258256      -0.23002765       0.14716377
O       50.73300000     181.88100000      62.89200000  F       0.25139182      -0.04115396       0.04962801
N       49.54300000     186.95500000      65.83900000  F       1.18478622      -1.69017851      -2.10293683
C       53.00100000     189.76900000      66.93800000  F      -0.23779152      -1.64648874       0.07797948
C       50.61700000     188.90900000      66.87800000  F       1.52258095      -2.06324047      -0.03387230
C       51.17400000     191.17200000      66.78900000  F      -2.37667345       1.59756239       0.28831404
C       52.52800000     191.00800000      66.84900000  F       0.37447418       1.50312773      -0.17145555
O       50.39900000     184.24800000      65.60200000  F      -1.55817741       0.34396142       0.29210179
C       49.21100000     184.48700000      65.88300000  F       3.57967112       1.16925620      -1.40029612
N       48.40000000     183.55500000      66.32900000  F      -1.88246136      -1.57758840       0.64510902
C       48.71100000     182.15800000      66.51800000  F      -0.25121722      -0.11427685       0.17429786
B       47.86200000     181.26700000      65.38200000  F      -1.31246019      -0.00140934      -1.24102789
O       48.09300000     181.50400000      63.85900000  F       0.29039296       0.75780786       1.22195207
O       46.36200000     181.60000000      65.51900000  F       1.25153406       0.02436706       0.60142597
C       48.29600000     181.75500000      67.95500000  F      -0.31439947      -0.79352638      -0.98768235
C       48.94900000     182.52600000      69.07200000  F       0.65357232       0.55833766       0.04962846
C       50.44600000     182.57900000      68.87100000  F       0.54267665       0.31118282      -0.32117176
C       48.71900000     181.94600000      70.44400000  F      -0.64971211      -0.29899915       0.41126135
C       48.63200000     185.85900000      65.65200000  F      -0.68526524      -0.10275212       0.45399749
C       49.57600000     187.79600000      66.85700000  F       1.55113033       2.40270404      -0.06082248
O       48.72800000     187.85600000      67.68300000  F      -1.98697014      -0.56664740       1.93172553
C       52.02900000     188.76800000      66.95100000  F      -0.49084274      -1.88352684       0.01361392
Cl      52.47400000     187.12900000      67.11200000  F       0.66449335      -0.38189361       0.06152092
Cl      50.42800000     192.79300000      66.85900000  F       0.70222621      -0.20836300      -0.05667170
C       50.21800000     190.16200000      66.82700000  F      -0.34961520       2.54181145      -0.27648902
H       48.05405339     178.69308291      61.85632670  T       0.00345934      -0.00461419       0.00344104
H       48.63151495     179.83143910      62.94243055  T      -0.00337726       0.00494964       0.00196029
H       48.74282361     177.82289672      64.10600256  T       0.00026689      -0.00095223      -0.00056099
H       46.22574762     179.45424957      64.70192388  T      -0.00017811      -0.00021535      -0.00011447
H       47.61291820     177.35531888      66.46194001  T       0.00125720       0.00195818       0.00115278
H       45.93337479     177.31235200      65.94401043  T       0.00137772      -0.00129136      -0.00146351
H       46.48739123     178.54771411      67.08759610  T      -0.00240445       0.00049176      -0.00084649
H       48.12790885     175.73969639      64.52725713  T      -0.00082372      -0.00049086      -0.00022420
H       45.43873823     175.01151189      63.65769709  T      -0.00146182      -0.00115989       0.00446610
H       47.81971890     173.18304971      63.03375079  T      -0.00065544      -0.00158239       0.00061419
H       46.60969620     175.21120664      61.64958536  T       0.00514577       0.00729535      -0.03207965
H       44.80250108     173.06605644      62.35933104  T       0.00018034       0.00023415      -0.00026227
H       45.58062402     172.05301182      63.57419927  T       0.00029755       0.00035190       0.00024705
H       45.98256661     171.86711354      61.85873659  T       0.00057510      -0.00005458       0.00022288
H       44.42051723     174.31099362      65.47503387  T       0.00141861       0.00006966      -0.00098969
H       46.06212553     172.67257390      67.31980396  T      -0.00007279      -0.00013975       0.00007841
H       44.52373967     173.42426477      69.18282036  T       0.00004497      -0.00011546       0.00043064
H       43.40110067     174.96232013      67.06799888  T       0.00026567       0.00024838      -0.00019693
H       45.89540328     175.67860002      67.64163674  T      -0.00083334      -0.00014168      -0.00033645
H       46.68149264     174.65707271      68.83654070  T      -0.00024593      -0.00073491      -0.00040213
H       45.40785455     175.78518787      69.32601737  T      -0.00050783      -0.00063183       0.00026955
H       49.54195500     173.70981718      66.39409365  T      -0.00000359      -0.00024612       0.00013908
H       52.33328059     172.86094977      66.09931685  T       0.00053429      -0.00020754      -0.00072465
H       52.39145513     174.22746000      64.12354992  T       0.00045157       0.00014917       0.00103820
H       50.77394046     173.54498094      64.13207788  T      -0.00059786       0.00003775       0.00089844
H       53.81576973     175.15502511      65.75959979  T       0.00057790      -0.00123077       0.00025140
H       53.27571862     176.63644216      68.23478857  T       0.00000656       0.00102846       0.00030321
H       55.61367449     176.24546026      68.82360759  T       0.00024071       0.00086020      -0.00051444
H       54.80660656     174.70709678      68.48350922  T      -0.00001181      -0.00037699      -0.00074793
H       56.42904227     176.14619269      66.65967372  T      -0.00026137       0.00003994      -0.00019385
H       52.93588658     177.54052254      65.30685043  T      -0.00041534      -0.00059034      -0.00000177
H       55.19354566     179.44572544      65.11849570  T       0.00023947       0.00002365      -0.00004839
H       54.53785318     178.22064219      63.07378491  T       0.00068629       0.00062377       0.00029787
H       52.85816663     178.62661688      63.32095675  T      -0.00025379       0.00072468       0.00025260
H       53.17695259     180.95495522      62.76058808  T      -0.00007786      -0.00002845      -0.00038556
H       54.92338285     180.84333540      62.85874915  T       0.00006300      -0.00016670      -0.00030533
H       53.24181848     179.33964841      60.80907154  T       0.00014947      -0.00046515       0.00070359
H       54.10236425     180.83649087      60.47990238  T       0.00059508       0.00039214       0.00075263
H       55.12864539     178.65064755      57.60721754  T       0.00194055      -0.00122054       0.00107778
H       53.96989877     179.42584315      58.49580953  T       0.00079749       0.00035859       0.00235745
H       57.10858706     177.79266169      58.46146884  T      -0.00009868       0.00065869      -0.00007338
H       57.45426773     177.89246096      60.10300504  T      -0.00021428       0.00042938       0.00000649
H       54.92318694     181.65873764      65.27661150  T       0.00004557      -0.00043510       0.00168085
H       52.17996950     182.66584084      65.45224984  T      -0.00052800       0.00046434       0.00006121
H       54.68690860     183.70573300      66.89947482  T       0.00003617       0.00003088      -0.00044296
H       53.23988921     183.05028242      67.67444394  T       0.00025554      -0.00069991      -0.00001456
H       53.15796250     184.58394462      66.81344353  T      -0.00054622      -0.00027426      -0.00034090
H       51.84660327     184.61128821      64.35592445  T       0.00248179      -0.00352877       0.00500198
H       54.04768772     185.52748463      62.67809490  T       0.00029011      -0.00002819      -0.00000142
H       52.32933057     185.69441199      60.70587094  T       0.00187744      -0.00066920      -0.00054003
H       50.59691063     185.10940707      62.28242566  T      -0.02940643       0.03120678       0.00983734
H       53.10708146     182.91109624      61.74917709  T       0.00069754      -0.00036845      -0.00007834
H       54.17217455     183.92336266      60.78063887  T       0.00035160      -0.00045769       0.00104211
H       52.68851752     183.26533669      60.07737369  T      -0.00005837       0.00057056      -0.00025720
H       53.96844925     187.62855139      61.94691033  T      -0.00095700      -0.00005432      -0.00059522
H       51.78543404     189.35499857      63.00536220  T      -0.00028544       0.00028487       0.00010609
H       54.78547923     189.96072169      62.63742345  T      -0.00033160      -0.00034128      -0.00052309
H       53.99262854     189.78135089      64.20450319  T      -0.00032414      -0.00051647      -0.00011952
H       53.58864013     191.14670002      63.15143911  T      -0.00070088      -0.00019021      -0.00007242
H       55.79226430     178.63325820      69.12236385  T       0.00202054      -0.00060094       0.00029076
H       55.45206391     179.83402656      71.76686478  T      -0.00003481       0.00006053       0.00007664
H       53.45680306     179.19809708      69.51242064  T      -0.00028089       0.00005586      -0.00006007
H       53.21090960     181.07582654      71.92060432  T       0.00078364       0.00017018      -0.00058178
H       52.38724126     179.53334922      71.74949905  T       0.00068227      -0.00053393      -0.00031633
H       51.98734759     180.86887462      70.67492077  T       0.00023664      -0.00040251      -0.00082222
H       54.89284781     181.81700959      70.18860096  T      -0.00026171      -0.00036753       0.00058202
H       53.62584561     181.63784301      68.97889622  T      -0.00061021      -0.00039084       0.00004918
H       55.17416138     180.82476328      68.76054511  T      -0.00010629      -0.00068502       0.00017522
H       54.24832177     178.83228014      73.46072073  T      -0.00178951       0.00105184      -0.00075386
H       53.53477928     175.99780097      73.00931506  T       0.00003788      -0.00014723       0.00004518
H       53.10031927     176.00348406      75.48518636  T       0.00056848      -0.00065993      -0.00060302
H       53.55663072     177.68548318      75.54635047  T       0.00085159       0.00030671      -0.00050804
H       55.87171996     177.10202957      74.75608531  T      -0.00043385      -0.00015648      -0.00064368
H       55.46789978     176.29400397      76.25127721  T      -0.00085269      -0.00068006       0.00005798
H       54.68176715     174.29334317      74.75696689  T       0.00052785       0.00000432       0.00116057
H       55.52024804     175.06279856      73.44158887  T       0.00163910       0.00107658       0.00023176
H       57.11228208     174.67515636      76.00288719  T       0.00012665       0.00030278      -0.00032290
H       56.74175195     173.22602454      75.08790725  T      -0.00014118       0.00009465      -0.00027552
H       57.94321125     175.66380113      73.84582119  T       0.00467968      -0.00125266       0.00258929
H       57.70086744     174.20562239      73.10155364  T      -0.00396964      -0.00081120       0.00174522
H       51.53956601     175.91513642      72.02968058  T      -0.00005572       0.00067379       0.00011890
H       49.56622598     177.94321129      72.74606099  T      -0.00009746       0.00004121      -0.00005527
H       49.48398486     175.73297830      70.64473071  T       0.00054022       0.00022444       0.00006423
H       48.30382969     177.00290894      70.81639686  T       0.00024287       0.00073025       0.00017137
H       50.16540425     178.67884554      70.46671787  T      -0.00035093      -0.00011816      -0.00022558
H       51.23659892     177.35136997      70.12895159  T      -0.00019897      -0.00049743      -0.00041662
H       49.73578013     176.64215801      68.24245913  T       0.00012472       0.00010405       0.00000657
H       48.68451155     177.99926925      68.57665200  T       0.00013147       0.00004764       0.00006272
H       50.58263147     179.58829857      68.12637109  T      -0.00149217       0.00002520      -0.00043000
H       51.66841233     178.24692842      67.91152298  T      -0.00025342      -0.00037774      -0.00008790
H       49.49801896     179.03149805      66.06900127  T      -0.00172659      -0.00188401       0.00223763
H       50.19308583     177.53411919      65.99276926  T       0.00352287      -0.00054431       0.00065389
H       50.33092094     175.09494251      74.16095774  T      -0.00055966       0.00248450       0.00246108
H       47.51557439     174.51615531      74.81817359  T      -0.00014679      -0.00008199      -0.00001121
H       49.93161003     172.70606728      75.15796654  T       0.00009095      -0.00022450      -0.00002221
H       46.94693357     172.27870561      75.74240500  T       0.00019648       0.00048792      -0.00063092
H       48.20274051     172.45776766      76.95852689  T       0.00059924       0.00046924      -0.00030875
H       48.19033942     171.04330081      75.90494202  T       0.00054632       0.00013739      -0.00059044
H       47.48564396     172.51231447      73.29810036  T      -0.00011438       0.00031362       0.00069023
H       48.74383538     171.28656272      73.43433681  T       0.00023244      -0.00001090       0.00073611
H       49.12277164     172.88134602      72.77904856  T       0.00038988       0.00038563       0.00059516
H       46.91237352     175.35824345      76.76817858  T       0.00003335      -0.00047142       0.00015387
H       49.14179400     176.20228820      78.57386308  T       0.00002719       0.00000393       0.00007595
H       46.21731895     177.06840826      78.18865136  T      -0.00023087       0.00028282       0.00034304
H       48.73841348     178.79464645      78.23733615  T      -0.00019378       0.00004717      -0.00003772
H       48.41252241     177.79948916      76.83552467  T      -0.00030683       0.00010967      -0.00013654
H       48.17020147     178.06620551      80.35572556  T       0.00036960      -0.00021002      -0.00081534
H       46.69734684     177.16015873      80.66072722  T      -0.00016514      -0.00051982      -0.00065762
H       46.60351874     178.79580386      80.01570234  T      -0.00020883      -0.00007324      -0.00090973
H       46.34257660     179.69811511      78.02042231  T       0.00103632      -0.00010938       0.00064380
H       46.19034854     178.78723746      76.53139645  T       0.00007440      -0.00063059       0.00049093
H       47.37692740     180.09787148      76.67430461  T       0.00061721      -0.00060835      -0.00081548
H       46.00474163     177.07694698      72.42079338  T      -0.00347815      -0.00513359       0.00056877
H       44.15571290     179.35686301      72.21309089  T      -0.00014762       0.00017023      -0.00018298
H       46.30002394     180.67535766      72.09910179  T      -0.00011226      -0.00003992       0.00022988
H       47.24249827     179.20708642      72.01252837  T      -0.00007341      -0.00034677       0.00043241
H       46.73435241     178.63184811      74.28715715  T       0.00068396       0.00003066      -0.00091268
H       45.38321099     179.73664666      74.34691548  T      -0.00011359       0.00116907      -0.00097458
H       49.78098884     181.16332204      74.64780031  T      -0.00001262       0.00024236      -0.00033050
H       49.17166846     180.46613526      73.14689750  T      -0.00006766      -0.00037151      -0.00005422
H       49.35866395     179.45169107      74.58186247  T       0.00012561       0.00013704       0.00029391
H       43.58820643     180.23400200      70.28728454  T       0.00188857      -0.00118017       0.00282895
H       45.43601806     180.15938097      68.08181858  T       0.00008605      -0.00011701      -0.00024144
H       42.57271004     179.07188974      67.86447816  T       0.00024603       0.00000978       0.00087903
H       44.01695972     178.08169638      67.70431187  T       0.00084359       0.00033093      -0.00010877
H       43.65429980     179.32328306      66.49346227  T      -0.00014574       0.00084195       0.00019150
H       45.02933040     182.11447125      66.81194522  T      -0.00034823      -0.00147331       0.00160498
H       42.78486969     183.82667929      67.76513105  T       0.00013106       0.00001145       0.00003181
H       43.40780057     183.82391532      66.10403318  T      -0.00010475       0.00015547       0.00016888
H       43.41502431     185.68069513      68.71302185  T      -0.00018385      -0.00049820      -0.00120180
H       44.65786715     187.53608569      69.15308554  T      -0.00013709      -0.00034445       0.00038775
H       45.88117415     186.98288244      68.00408719  T       0.00012826      -0.00031546       0.00010797
H       47.80542380     186.71322694      69.06885608  T      -0.00166367       0.00030208      -0.00067756
H       48.00203972     184.59551939      70.97049656  T       0.00006302      -0.00003731      -0.00001352
H       49.97607687     186.93330346      70.42827560  T      -0.00041395       0.00011889       0.00016504
H       49.94559181     185.45961789      69.47851500  T      -0.00035072      -0.00034692       0.00006708
H       50.41801120     185.40509705      71.18570744  T      -0.00028477      -0.00014119       0.00019962
H       48.14150085     188.22328049      71.48599666  T      -0.00014100      -0.00060776       0.00029487
H       48.52934909     187.87176711      74.30328193  T       0.00019008       0.00002256       0.00018395
H       47.20104052     190.16581466      72.76355502  T      -0.00028430      -0.00062306      -0.00003538
H       48.92814515     190.03263828      73.06292349  T       0.00015293      -0.00071196       0.00004006
H       47.81088317     190.28550419      74.41376269  T      -0.00003213      -0.00062663       0.00029370
H       40.75647076     177.50672433      63.81966096  T      -0.00097067       0.00130555       0.00340069
H       42.80885086     179.08502824      64.06416713  T      -0.00030871      -0.00037183       0.00055249
H       43.75451414     177.57548410      63.99791973  T       0.00003312      -0.00020650      -0.00006183
H       44.68254919     178.73937952      61.90232124  T       0.00000620       0.00197039       0.00276728
H       42.78241011     179.29911926      59.80072348  T       0.00007802       0.00057513      -0.00031461
H       44.59876903     180.91901138      60.34084387  T      -0.00034585      -0.00174110       0.00341580
H       44.86920522     180.17569503      58.75135274  T      -0.00137536      -0.00118084      -0.00091755
H       46.46533350     178.75661920      59.76355539  T      -0.00169500      -0.00551525       0.00812749
H       45.05951260     176.88454892      61.04336943  T      -0.00302682       0.01834746       0.00203341
H       44.95009133     175.53195081      58.42758348  T      -0.00038405       0.00054823       0.00083507
H       45.96906656     175.05984290      59.76031709  T      -0.00066903       0.00527913       0.00731631
H       49.25347294     174.43563141      55.84196816  T      -0.00013178       0.00036649      -0.00030086
H       48.16588562     177.02395946      55.03189090  T      -0.00024606       0.00014591      -0.00019267
H       48.55688716     175.67965439      57.75096414  T       0.00022103       0.00037486       0.00001300
H       47.04708661     175.73784517      56.85587823  T      -0.00028917       0.00091220      -0.00066205
H       49.53587057     178.66273050      54.63513816  T      -0.00030241       0.00033502       0.00103315
H       52.23335918     178.65506607      55.37804719  T       0.00030697      -0.00007213      -0.00016774
H       50.41976678     181.07313428      54.86706002  T      -0.00019193      -0.00038607       0.00037906
H       51.26278408     180.16381488      53.61467853  T       0.00003614      -0.00057061       0.00018851
H       52.17812416     181.10498421      54.80073232  T       0.00021032      -0.00042383       0.00041245
H       49.44757702     179.41157887      57.39403189  T      -0.00007676      -0.00041248      -0.00095291
H       51.26310793     180.92765441      59.17270420  T       0.00022957       0.00015905      -0.00000876
H       48.18858881     180.75640160      59.23322219  T       0.00053333       0.00024643      -0.00051980
H       49.15762177     181.70950695      60.34792326  T       0.00044132       0.00077938      -0.00031061
H       47.93590118     181.41467953      56.93286267  T      -0.00064414      -0.00012285      -0.00018749
H       50.43629762     183.58841815      59.51900143  T       0.00059212      -0.00008088       0.00036837
H       48.12727858     183.22432530      55.23288804  T      -0.00094929      -0.00066052       0.00018604
H       50.77921857     185.27620758      57.76050624  T       0.00043839       0.00013822       0.00013800
H       49.12735038     185.16141996      54.68535813  T       0.00015065       0.00104252      -0.00036968
H       50.81992001     177.73305374      58.76106784  T      -0.00075288       0.00329695      -0.00139866
H       51.05729925     177.47337227      61.70845619  T      -0.00077538      -0.00025687       0.00097068
H       50.15170950     175.12649987      61.53045257  T      -0.00025748       0.00189613      -0.00013265
H       49.86719092     175.39316760      59.80988358  T      -0.00028538       0.00147644       0.00001869
H       48.23727203     176.19813187      61.92337739  T       0.01435438      -0.01303107      -0.02366088
H       58.63289398     191.29356986      73.26326119  T      -0.00016817      -0.00020901       0.00059854
H       56.04253779     190.06476112      74.01029207  T      -0.00018721      -0.00011216       0.00005818
H       55.42389121     192.44597690      74.76881967  T      -0.00021440      -0.00106471       0.00066872
H       57.05822670     192.94586434      74.43686699  T       0.00107196      -0.00077840       0.00042264
H       58.93536492     191.81023485      75.70628699  T       0.00036187       0.00018955      -0.00007611
H       54.88322159     191.50632129      76.81908746  T      -0.00048837       0.00012814       0.00013112
H       59.63006245     191.06417569      77.94162313  T       0.00031871       0.00009290      -0.00001383
H       55.50159118     190.80913277      79.07741897  T      -0.00031411       0.00008096       0.00025093
H       57.88446501     190.53908512      79.63630775  T       0.00002845      -0.00015589       0.00030850
H       54.16829516     190.88673279      72.86428743  T       0.00028582      -0.00201791      -0.00107838
H       54.85000616     192.49983635      70.55442347  T      -0.00052054       0.00038811      -0.00105921
H       52.93212996     191.68400502      69.38276850  T       0.00027156       0.00119094       0.00068193
H       53.58660852     190.25454462      70.14278184  T       0.00025603      -0.00014718       0.00177809
H       53.27990492     195.95786480      72.32058617  T       0.00024433      -0.00009480       0.00009314
H       50.85765275     196.10099575      70.43281306  T       0.00004039       0.00031363       0.00015054
H       51.96276335     197.41436861      70.85418749  T      -0.00021159      -0.00013264       0.00003953
H       52.37731384     196.18051410      68.53359596  T       0.00013436       0.00011481       0.00010095
H       53.78125459     196.40577373      69.58595473  T      -0.00018005       0.00005130      -0.00007971
H       53.84577941     194.01268566      69.30470355  T      -0.00031472      -0.00030847       0.00005334
H       52.07108079     193.87748083      69.24833831  T       0.00032410      -0.00029369      -0.00017735
H       44.91876830     170.88422128      68.25260791  T      -0.00138253       0.00101563       0.00090960
H       42.32387704     170.27852058      66.86401116  T       0.00176435      -0.00155871      -0.00282297
H       42.69608382     169.82290823      68.53169817  T      -0.00232804       0.00271071      -0.00060347
H       43.51464456     169.00980083      67.18039878  T       0.00101809      -0.00088535       0.00344100
H       48.32311164     172.81393530      67.89327120  T      -0.00047363      -0.00151032      -0.00182910
H       49.14578342     172.29144167      69.36964429  T      -0.00032119       0.00246166      -0.00033666
H       48.67178875     171.10107808      68.15165206  T       0.00131023      -0.00083661       0.00197568
H       50.64814690     189.35710638      61.01258792  T       0.00097531      -0.00307391      -0.00086932
H       52.26299561     189.69060033      58.53558772  T      -0.00015044       0.00683801       0.00017712
H       50.70600843     190.50722816      58.72341426  T      -0.00589384      -0.00349005       0.00069098
H       50.78197388     188.73221734      58.67192486  T       0.00595676      -0.00324895      -0.00072802
H       58.00268809     178.16948007      68.52353770  T       0.00091412       0.00360599      -0.00002382
H       58.63508085     177.02027282      69.70760571  T      -0.00277637      -0.00116916      -0.00220139
H       59.25268944     178.67291854      69.66690792  T       0.00129609      -0.00225772       0.00269559
H       49.27088053     175.35564606      80.57749713  T      -0.00027074      -0.00108533      -0.00065467
H       47.13903037     173.46984050      81.40269185  T      -0.00127286       0.00205086       0.00092518
H       47.98023240     174.52751294      82.54228839  T       0.00258849      -0.00002055       0.00024797
H       48.86233303     173.22768770      81.71113460  T      -0.00106424      -0.00132980      -0.00192877
H       45.35841583     175.22320636      73.37896503  T       0.00182635       0.00262093       0.00405726
H       43.64442661     174.86509041      73.12775237  T       0.00295749      -0.00057094      -0.00383843
H       44.19765919     175.49581263      74.68098706  T      -0.00531142      -0.00063444      -0.00061902
H       45.52013341     187.87366070      72.32299515  T       0.00045317       0.00329692      -0.00116458
H       44.03533989     187.53659236      74.86526689  T      -0.00089255       0.00584688       0.00097246
H       43.63303576     186.79409913      73.31283010  T       0.00260825      -0.00340344       0.00418951
H       43.34047000     188.53068651      73.57187330  T      -0.00147286      -0.00241703      -0.00542601
H       39.73819254     175.92930077      65.07560187  T      -0.00003557      -0.00334745      -0.00486028
H       40.65215709     175.46622655      66.51860384  T      -0.00275323       0.00532934       0.00001472
H       40.63345120     174.40167290      65.11847892  T       0.00305343      -0.00148651       0.00438992
H       42.71788252     175.64618462      60.83101149  T       0.00136069       0.00115446      -0.00086624
H       42.18478869     172.72331696      60.59197515  T      -0.00166001       0.00047194      -0.00270861
H       40.91793278     173.96154275      60.55770059  T      -0.00069362       0.00175680       0.00267341
H       41.85227433     173.67972432      62.04587560  T       0.00235247      -0.00216412       0.00009273
H       49.35274489     173.42890519      52.32400369  T       0.00186328       0.00026227       0.00004885
H       48.42960036     172.89638668      53.73204993  T      -0.00099943       0.00056614      -0.00149451
H       50.19112369     173.03594463      53.82829472  T      -0.00088327      -0.00041722       0.00157632
H       52.68375727     176.13138896      62.43373308  T       0.00026858      -0.00023137      -0.00026834
H       54.75076307     175.38608286      60.33717351  T       0.00093682       0.00204038       0.00017978
H       54.49156216     174.40701851      61.79194517  T      -0.00066239      -0.00086084      -0.00208810
H       55.19527246     176.03439756      61.92247343  T      -0.00038934      -0.00122236       0.00199355
H       60.53298688     190.18716537      73.71816478  T      -0.00008564       0.00063095       0.00202772
H       60.35544646     188.49917271      73.22671066  T       0.00004128       0.00146908      -0.00155976
H       60.39031475     188.91624362      74.93881733  T      -0.00029422      -0.00194190      -0.00047674
H       50.88718128     193.40453714      72.33388237  T       0.00002163      -0.00004829      -0.00011181
H       49.36021156     194.99158568      74.32836521  T      -0.00429566       0.00315332      -0.00430565
H       49.57295273     193.23325163      74.29775558  T       0.00366108       0.00368324       0.00455071
H       48.46932628     194.01600676      73.14371581  T       0.00066667      -0.00696985      -0.00010480
H       50.29957849     186.96608284      65.14401876  T       0.00047910       0.00277752       0.00195533
H       54.05070448     189.53407786      67.00048537  T       0.00049088      -0.00006168      -0.00000481
H       53.17926527     191.86732679      66.82832677  T       0.00047074       0.00030935      -0.00006014
H       47.44297816     183.79535660      66.60247923  T       0.00111557       0.00203223      -0.00090532
H       49.76840337     181.97650839      66.30967843  T       0.00014061       0.00054183       0.00029190
H       48.49740582     180.68674952      68.08410937  T       0.00119949       0.00041009       0.00001319
H       47.20768302     181.84987306      68.03322818  T       0.00030657       0.00154766       0.00020691
H       48.55205539     183.55718727      69.03577364  T      -0.00062084       0.00004070      -0.00023326
H       50.86910772     181.57884673      68.79582527  T      -0.00026541      -0.00065336       0.00259464
H       50.94750202     183.08716352      69.69645391  T      -0.00095743       0.00238613      -0.00065400
H       50.70484142     183.11390115      67.95557570  T      -0.00070097      -0.00195827      -0.00150520
H       49.08719526     180.92107531      70.49895804  T       0.00117776       0.00034223      -0.00048184
H       47.65512148     181.92383279      70.68457900  T      -0.00026375      -0.00072347      -0.00116980
H       49.22496681     182.51981825      71.22227343  T      -0.00061797       0.00127010      -0.00053460
H       48.20958136     185.90935009      64.64366125  T       0.00136925      -0.00037583      -0.00039835
H       47.79664981     186.01413620      66.34344820  T       0.00119965      -0.00040291       0.00139725
H       49.16868414     190.40766424      66.80707477  T      -0.00054483       0.00009376       0.00006313
H       55.95731293     179.06905069      61.56560806  T      -0.00001670       0.00011404       0.00005089
H       58.83301537     174.32933415      74.31981749  T       0.00023385       0.00790789       0.00190527
H       46.98647999     179.70234930      62.65160733  T       0.00156204       0.00058348      -0.00014349
H       47.60405463     182.34195062      63.74837407  T      -0.01731198      -0.00805757      -0.00183809
H       45.78579084     181.41038279      64.75754294  T      -0.00106361      -0.00404241       0.00182821
H       44.31868914     180.43864528      62.90369931  T      -0.00910430       0.01970130      -0.00705682
H       44.23361434     181.97341494      63.10188513  T      -0.02036458       0.00119623       0.01488093
H       49.47463808     189.74269284      70.12269117  T      -0.00020367       0.00015807       0.00067330
H       48.66703004     188.87542710      69.14219528  T      -0.00085844      -0.00024542       0.00004577
H       50.76967798     182.78973796      62.54313911  T      -0.04063757       0.00905409       0.01631732
H       49.86818688     181.73647314      63.30892094  T       0.00461470       0.04639674      -0.01471560
