544
Properties=species:S:1:pos:R:3:move_mask:L:1:forces:R:3 BO2_MS_B_LYS33=T |=T Arg19=T repaired=T +=T controlled=T bridge=T water=T charge=-1 energy=-2549.9881771781484 stress="0.0 0.0 0.0 0.0 0.0 0.0 0.0 0.0 0.0" pbc="F F F"
N       47.86000000     179.16600000      62.75300000  F      -0.00185990      -0.88239365      -0.38850930
C       47.74100000     178.18400000      63.82800000  F      -0.10197419       0.69629243       0.13839869
C       46.89800000     177.01300000      63.45800000  F      -0.67631610       1.02833841      -1.11483648
O       45.92400000     177.16600000      62.74200000  F      -0.05467309      -0.00354366      -0.01743195
C       47.11500000     178.90200000      65.03000000  F       0.64083878       0.13444729       1.03937783
O       48.05800000     179.83300000      65.54700000  F      -1.07042593       0.57258402      -0.70558452
C       46.75800000     177.97700000      66.20200000  F      -0.21128176      -0.20983289      -0.42169537
N       47.29700000     175.82200000      63.92600000  F       0.64093534      -1.23985839      -0.02219001
C       46.45400000     174.65200000      63.87400000  F       0.22184627      -0.45087329       0.61059902
C       46.46600000     174.00900000      65.26500000  F       1.08530648       1.09671951      -0.55296338
O       47.51200000     173.74100000      65.82500000  F       0.08947565      -0.38659099      -0.27907435
C       46.85700000     173.64600000      62.77200000  F      -0.69531897      -0.08802586      -0.13484950
O       47.03300000     174.32800000      61.52200000  F       0.00427163       0.24128100       0.52644059
C       45.74000000     172.58800000      62.63800000  F       0.45625288       0.13804085       0.00532220
N       45.27100000     173.88600000      65.86300000  F      -1.07378637      -0.14342582       0.55670444
C       45.10500000     173.16100000      67.09700000  F      -0.35988847      -0.30168559       0.12931029
C       44.05700000     172.10600000      66.86000000  F      -1.50193302       2.09340257      -2.61580570
O       43.14400000     172.33000000      66.03400000  F       1.42815169      -0.46951551       1.51448056
C       44.68600000     174.04700000      68.28800000  F       0.09331183       0.15155121      -0.53750127
O       43.45900000     174.68700000      68.01900000  F      -0.53230646      -0.05620482      -0.02426322
C       45.72600000     175.09400000      68.54400000  F       0.57415066       0.33797022       0.26419002
N       50.41500000     173.24300000      66.68500000  F       0.21176376       0.71995706      -1.04373286
C       51.64600000     173.72200000      66.09000000  F       0.16496249       0.30265200       0.83668208
C       52.22400000     174.79300000      67.03300000  F      -1.79552593      -0.88192501       1.47081465
O       51.71300000     174.99200000      68.14900000  F       0.80063944      -0.13904818      -1.71145730
C       51.44500000     174.21900000      64.66800000  F      -0.51458342       1.43951712      -0.41733283
C       50.85100000     175.67100000      64.62000000  F       0.73053336      -0.82891887       0.16501107
O       49.89900000     175.90100000      65.33700000  F      -0.93963737      -0.63547098       0.65113381
O       51.36800000     176.53800000      63.92800000  F       0.95282990      -0.21058666      -0.60342148
N       53.29800000     175.45600000      66.58800000  F       0.58087746       0.81343194      -1.17033570
C       53.98000000     176.37900000      67.42500000  F       0.17670182       0.57081091       0.73872217
C       54.42000000     177.68400000      66.77600000  F       0.99546779       0.86271564       1.81607551
O       55.29400000     178.39100000      67.32700000  F      -1.36239909      -1.48426471      -1.46173687
C       55.14400000     175.64800000      68.02800000  F       0.24565534      -0.00390199       0.76708851
O       56.10400000     175.32300000      67.08600000  F       0.32257708      -0.02627719      -0.29541275
N       53.73900000     178.07000000      65.67300000  F       0.00175305      -0.01774806      -0.61371160
C       54.13100000     179.24900000      64.92000000  F      -0.63018905       0.20254373      -0.12202618
C       53.30200000     180.45100000      65.35500000  F      -0.51418766      -2.87141818       0.00682899
O       52.12100000     180.31100000      65.52100000  F      -0.75467843       0.41840361      -0.44031371
C       53.87800000     179.01400000      63.43500000  F       0.10945102       0.35669895      -0.36380969
C       54.02700000     180.29000000      62.55900000  F      -0.02424488      -0.44590578       0.80541113
C       54.11000000     179.93900000      61.10900000  F      -0.04691019      -0.05283409      -0.58340997
N       55.30700000     179.17700000      60.79000000  F      -0.26363672       0.18948853       0.75102938
C       55.63600000     178.74900000      59.56100000  F       0.89887923      -0.16718289       0.53099888
N       54.89600000     179.02000000      58.51500000  F      -1.06002025       0.19100052      -1.40342210
N       56.79600000     178.10500000      59.36800000  F       0.51204237      -0.35409977       0.10405103
N       53.93000000     181.57900000      65.50300000  F       2.05261182       2.54460155      -0.09263038
C       53.26600000     182.85600000      65.52000000  F      -0.05484322       0.44059349       0.05135702
C       53.69100000     183.73000000      64.34400000  F       2.22593159      -0.49471730       1.19831463
O       54.86600000     183.78000000      63.98800000  F      -0.91427161      -0.52185240      -0.13278353
C       53.60800000     183.58900000      66.80600000  F      -0.23948266       0.12567984      -0.04239952
N       52.76300000     184.56000000      63.88700000  F      -2.00691583       0.66584032      -0.38099618
C       52.95600000     185.45200000      62.79600000  F       0.45094363       0.46230749      -0.72071122
C       52.44100000     186.84600000      63.06900000  F      -1.06057519      -1.22522007       0.56780017
O       51.42100000     187.04100000      63.69000000  F       0.50850012      -0.00041622      -0.76304283
C       52.35300000     184.90300000      61.47200000  F       0.19275126      -0.94186561       0.67573958
O       51.03100000     184.45400000      61.69800000  F      -0.70899100       0.38346972      -0.22930635
C       53.12900000     183.68100000      60.98200000  F       0.30231593       0.29066429      -0.04591649
N       53.14600000     187.82700000      62.51900000  F       1.31097268       1.53330567      -0.56602370
C       52.76100000     189.24900000      62.50900000  F       0.48035613      -0.79198962      -0.43802360
C       52.67800000     189.56500000      61.02800000  F       1.53231124       0.89924058       0.51201716
O       53.69300000     189.79000000      60.39100000  F      -0.09106575      -0.30475601       0.23133818
C       53.84300000     190.08700000      63.16900000  F      -0.06482823       0.06443407       0.02940134
N       56.06200000     178.77600000      70.10600000  F      -0.78564738       0.72387964      -1.04792372
C       55.01900000     179.19100000      70.99100000  F      -0.89318131      -0.86343523       0.07529755
C       54.41400000     177.93400000      71.61200000  F      -0.13561758      -0.66204575      -2.20191412
O       54.12100000     176.98500000      70.87400000  F       0.42948543       0.98736381       0.79276636
C       53.88000000     179.91700000      70.23400000  F       0.45955277       0.12614556       0.20243289
C       52.80800000     180.37200000      71.19200000  F      -0.49177449      -0.06537699       0.30007757
C       54.42500000     181.11400000      69.49900000  F       0.19028312       0.16883418      -0.36798095
N       54.14500000     177.97100000      72.92100000  F      -0.15036437      -0.14255988       1.53067541
C       53.36600000     176.92500000      73.57300000  F      -0.71307012       0.33719243      -0.23132414
C       51.87300000     177.28800000      73.49500000  F       2.57994199      -0.35980832       0.24923914
O       51.45600000     178.15600000      74.18100000  F      -0.84479548       1.95220248       1.46946251
C       53.75900000     176.74600000      75.01900000  F       0.10188206      -0.02584640       0.21477272
C       55.21400000     176.33700000      75.18500000  F       0.23833176      -0.32481969      -0.12764794
C       55.51700000     174.96900000      74.53300000  F      -0.10957704      -0.10155572       0.48938010
C       56.83900000     174.31600000      75.00400000  F      -0.33942384       0.37064424      -0.39184983
N       57.89700000     174.64600000      74.01500000  F       0.30656053       0.01644950       0.01780871
N       51.13400000     176.62500000      72.64300000  F      -1.43019884      -1.87200530      -1.81139860
C       49.71600000     176.90100000      72.43200000  F      -0.35641248       0.20751882      -0.13262969
C       48.77200000     176.04900000      73.26900000  F      -3.31650570       2.15818021      -0.89868824
O       47.52800000     176.28000000      73.26500000  F       2.82211923      -0.53034759      -0.22377763
C       49.37100000     176.78000000      70.95000000  F      -0.84781834      -0.65349577       0.51805555
C       50.18100000     177.65300000      70.07500000  F       0.74736152       0.63632027       0.13603278
C       49.72600000     177.66300000      68.64600000  F      -0.06995361       0.00031952      -0.64494186
C       50.62200000     178.54800000      67.79200000  F       0.02248559      -0.15216488      -0.04921642
N       50.30600000     178.48400000      66.33800000  F       0.07713084       0.03055586       0.39796385
N       49.31500000     175.10600000      74.01100000  F       1.29765390      -1.72667234       1.43521788
C       48.58100000     174.35100000      75.03000000  F      -0.25759337       0.14184454      -0.31676856
C       48.87400000     174.86500000      76.41100000  F      -0.32486297       0.38853239      -1.86815531
O       49.97800000     174.85800000      76.83600000  F       2.48064948      -0.51054778       0.80361508
C       48.86300000     172.86200000      74.93600000  F      -0.30502281      -0.31529719      -0.31606360
C       48.00700000     172.11800000      75.94000000  F       0.00082025      -0.23065333       0.39392357
C       48.53800000     172.35300000      73.53300000  F       0.22318803       0.05482653      -0.11892115
N       47.88300000     175.43300000      77.07900000  F      -1.73273827       0.81147517       1.62973336
C       48.07500000     175.99100000      78.43700000  F      -1.24961768      -0.86611989       0.03678157
C       47.60000000     174.96900000      79.48700000  F      -2.81245850       0.43045493      -2.57102852
O       46.50400000     174.40000000      79.36000000  F       1.51226202       0.58378821       0.02057537
C       47.23000000     177.28900000      78.56000000  F       1.05441399      -0.45766224       0.49220251
C       47.92700000     178.30100000      77.68600000  F       0.05906509       0.03608528      -0.57895133
C       47.16900000     177.86500000      79.97500000  F      -0.21101113      -0.40852378       0.21842774
C       46.91300000     179.26200000      77.19800000  F      -0.39709801       0.84538034      -0.10504473
N       45.06900000     177.49700000      72.37500000  F       1.98421176       1.10243598      -1.35233061
C       45.08700000     178.88400000      71.87400000  F       0.79969744      -0.42809842       0.22224861
C       45.16900000     178.92200000      70.35700000  F       3.18113551      -1.61289079       0.19671322
O       46.09600000     178.35500000      69.73900000  F      -1.55397925       0.62903929       1.05804660
C       46.33400000     179.63700000      72.44600000  F      -0.64818904       0.02012358      -0.53486436
C       46.39300000     179.61300000      73.94600000  F       0.08296855      -0.23438779       0.39654872
S       47.39400000     180.86300000      74.73100000  F       0.69332756       0.10123284      -0.55954953
C       49.08400000     180.44300000      74.22900000  F      -0.75777017      -0.01920309       0.07537131
N       44.31000000     179.72300000      69.76300000  F      -1.64870720       1.27282739      -0.61334855
C       44.37900000     180.09100000      68.37300000  F      -0.73507014       0.64159234      -0.11624862
C       43.70300000     181.47000000      68.24700000  F      -0.13831819      -0.92867226       1.45976879
O       42.76100000     181.74200000      68.96300000  F      -0.15331578      -0.24005951      -0.13837848
C       43.61800000     179.08600000      67.55700000  F       0.04828892      -0.28250001      -0.32263612
N       44.21300000     182.35000000      67.39100000  F       0.65518867       1.13281408      -1.90331428
C       43.68400000     183.70300000      67.15500000  F       0.02922647      -0.90973867       0.09092525
C       44.74000000     184.66900000      67.54400000  F       1.91660951      -2.24811041      -0.56927753
O       45.90700000     184.42800000      67.24000000  F      -0.99171774       0.78378898      -0.16156575
N       44.35800000     185.66900000      68.31100000  F      -1.88296041       1.64493090       0.73716134
C       45.21700000     186.65900000      68.81200000  F       0.99440092       0.06981239       0.57084566
C       46.03400000     186.08700000      69.94800000  F      -1.44143599       0.18005286       0.10483747
O       45.50900000     185.57800000      70.91900000  F      -0.27913179       0.16741173      -0.28474082
N       47.35700000     186.20700000      69.84900000  F       1.67991077      -0.01667327       0.26932211
C       48.24700000     185.66100000      70.87300000  F       0.78299162       0.44324867       0.22356303
C       48.00300000     186.30600000      72.24300000  F       0.16581837      -2.55452064       0.75661260
O       47.89400000     185.60300000      73.25900000  F       0.19853123       0.62422963      -1.42364782
C       49.74500000     185.87000000      70.46700000  F      -1.11465116      -0.35045399       0.44423295
N       47.99700000     187.63100000      72.31600000  F      -0.33582336       1.37505085       0.31497089
C       47.79000000     188.29000000      73.60400000  F      -1.05514049      -0.16365775       0.15978455
C       46.37300000     187.97100000      74.17700000  F       2.03631199      -0.49684089       0.61419529
O       46.25200000     187.68900000      75.35200000  F       0.02415658       0.46530328       0.17372500
C       47.94400000     189.77600000      73.45900000  F       0.21958708       0.33543701       0.05379549
N       41.67600000     177.26100000      64.19100000  F       1.33599505       1.46124813      -0.59217483
C       42.83500000     178.06900000      63.66600000  F      -1.19965115      -1.35924531      -0.32804681
C       42.79500000     178.05500000      62.14600000  F      -3.23953500      -2.99852838       0.27121875
O       41.98100000     177.33200000      61.51700000  F       1.32819939       1.66072107       1.38507414
N       43.70000000     178.80000000      61.55400000  F       2.64501406       1.61112648      -0.40545722
C       43.77700000     178.96000000      60.13300000  F      -1.10674396      -0.51499565      -0.53159148
C       44.07100000     177.67100000      59.40100000  F      -1.42912031       0.53368281      -1.67434275
O       43.68700000     177.52300000      58.23400000  F       0.59321838       0.24348155       1.30158865
C       44.80300000     179.97300000      59.82800000  F       1.53031133      -0.03369977      -0.00785045
O       46.08600000     179.49100000      60.29100000  F      -0.35187498       0.83405002      -0.26882181
N       44.71300000     176.72000000      60.08000000  F       0.60082847      -1.44321571       0.91076863
C       44.95800000     175.39500000      59.51400000  F       0.24407006      -0.00529328      -0.51835959
C       43.97000000     174.30600000      59.82900000  F       0.65316635      -0.93848807      -1.26808045
O       44.14200000     173.16500000      59.37800000  F      -0.12007601       1.31052700       0.81535442
N       49.08300000     175.18400000      55.16800000  F       0.16933868      -0.31320312       1.64637987
C       48.77300000     176.46600000      55.76000000  F       0.13192204       0.17263093       0.28548178
C       50.03300000     177.26300000      56.05900000  F      -0.75480961      -1.04612805       1.00438331
O       50.77800000     176.91400000      56.95100000  F       0.03893353      -0.20032916      -0.28268450
C       47.97300000     176.28200000      57.05300000  F      -0.31957781       0.81255464       0.24793356
C       47.64800000     177.61700000      57.74200000  F       0.15326829       1.12591196       0.93895655
O       47.64400000     178.66700000      57.04600000  F      -0.03347211      -1.45747676       0.66085671
O       47.47400000     177.60000000      58.99700000  F       0.13733092      -0.19670171      -2.27217407
N       50.18500000     178.39700000      55.37800000  F       0.57368005       1.41053841      -0.77532722
C       51.34500000     179.27200000      55.58400000  F       0.23567660       0.28554133       0.66890868
C       51.47100000     179.75500000      57.04700000  F       3.07873658      -0.37692430      -0.66443942
O       52.59100000     180.04300000      57.53400000  F      -2.39265262      -0.23565774      -1.11408495
C       51.30300000     180.47000000      54.66000000  F       0.04776519      -0.00972346      -0.04590006
N       50.33800000     179.82100000      57.73300000  F      -1.16744642       0.19255292       1.13812800
C       50.34100000     180.33300000      59.08900000  F      -0.74343625       0.44100661       0.67788954
C       50.44500000     179.24900000      60.14900000  F      -0.53884326       2.09050682       1.89149870
O       50.31300000     179.56900000      61.34700000  F       0.21524044      -0.68449968      -1.96414427
C       49.12600000     181.31500000      59.32700000  F       0.84651018      -1.67283114       0.42307482
C       49.21100000     182.37300000      58.33900000  F      -1.48851977      -0.28151983      -0.77201818
C       48.53100000     182.29000000      57.13500000  F       0.00534522       0.43654674      -0.89395941
C       49.95400000     183.46800000      58.56100000  F       1.45898954       1.50467024       0.39232357
C       48.65500000     183.29900000      56.16700000  F      -1.20543258      -2.30970003       0.57348281
C       50.14300000     184.42600000      57.58500000  F       0.25111603      -0.03539561       1.46199151
C       49.46900000     184.34700000      56.40300000  F       0.63610637       0.92983001      -0.53285522
O       49.67000000     185.32700000      55.48700000  F       0.06438970       0.75137089      -0.71599070
N       50.74300000     178.00900000      59.76100000  F       0.08259893      -1.32202962      -0.33201004
C       51.02000000     176.97300000      60.72600000  F       0.46314925      -0.65910372      -0.24198826
C       52.40300000     176.36000000      60.41500000  F       0.26684781       0.22783288      -4.70395187
O       52.83300000     176.22500000      59.18500000  F      -1.62161662       0.44538314       4.80950417
C       49.91600000     175.89400000      60.78300000  F      -0.44934029       0.53004865      -0.05911264
O       48.59300000     176.43000000      61.02500000  F       1.06646045      -0.28125769       0.06641924
N       58.01900000     190.54800000      73.59500000  F      -1.15409449       2.87219178      -0.74908835
C       56.60800000     190.95700000      73.70700000  F       0.35499627       0.26620085       0.51845177
C       56.06900000     191.48400000      72.40000000  F       0.99617449      -0.42567659       0.95613328
O       56.75700000     192.12400000      71.66200000  F       1.07553573       0.78278925      -0.75294689
C       56.46100000     192.09100000      74.76800000  F      -0.21540562      -0.23844485      -0.87825198
C       56.86500000     191.70400000      76.13100000  F       0.27645359      -0.01304514      -0.13794867
C       58.19500000     191.58900000      76.45600000  F       0.49662537       0.05188546      -0.29015908
C       55.92500000     191.41800000      77.08200000  F      -0.99623170       0.03882344       0.09194095
C       58.58700000     191.17200000      77.69800000  F      -0.93413704      -0.37516279       1.09721395
C       56.26300000     191.02800000      78.34700000  F       0.29062962      -0.24478885       0.20636610
C       57.59400000     190.87200000      78.65400000  F       0.99233417       0.28546101      -0.46084837
N       54.78400000     191.26700000      72.14300000  F      -2.26049772      -0.59068596       0.20787274
C       54.06500000     192.08500000      71.20700000  F      -0.49178605       0.74162202       0.03259762
C       53.39300000     193.30200000      71.92900000  F       1.58245305      -1.83740311       0.42172058
O       53.42100000     193.43500000      73.14300000  F       0.23063953      -0.52025636      -0.43338788
C       53.11400000     191.21700000      70.35300000  F      -0.30508758       0.12073147       0.43185979
C       51.76300000     190.96700000      70.99500000  F      -1.65629472      -0.72473515      -0.01960146
O       51.42500000     191.44700000      72.08100000  F       0.82999061       0.38587576      -0.05719665
O       50.94700000     190.26100000      70.36900000  F       1.97713714       0.70913322      -0.08823940
N       52.85200000     194.26100000      71.16400000  F      -0.98769844       0.69618848       0.36160594
C       52.41200000     195.50300000      71.82400000  F      -1.00314238       0.39107286       0.19441993
C       51.27800000     195.35200000      72.84000000  F       1.93616542       1.79627435       0.22317458
O       51.11000000     196.21600000      73.68500000  F      -0.04684343      -0.01235922      -0.37964822
C       51.90800000     196.33900000      70.63800000  F      -0.06095868       1.18025698       0.86073426
C       52.79800000     195.92400000      69.51600000  F       0.00699353      -0.12218379      -1.44672182
C       52.91000000     194.41600000      69.70300000  F       0.60544551      -0.34874868      -0.36619467
N       44.18000000     170.99300000      67.55100000  F      -0.48631207      -2.46757380       1.26562159
C       43.11900000     169.96000000      67.53700000  F       0.52234610       0.51483048      -0.06979534
C       49.04800000     172.11100000      68.30100000  F       1.18231908      -0.19210088      -0.31736820
C       50.41400000     172.27400000      67.61400000  F       0.99133673      -2.63601512       1.86724999
O       51.40800000     171.53300000      67.90800000  F      -2.70453436       2.13266791      -0.78713391
N       51.47700000     189.61000000      60.46800000  F      -2.17745036      -0.26638692      -0.98782127
C       51.28700000     189.63400000      59.01600000  F       0.24939166       0.09380112       0.38460536
C       58.36100000     178.06100000      69.54600000  F      -0.62903862       0.36768066       0.43626675
C       57.29000000     178.48500000      70.54800000  F       1.30505466      -1.23084442      -1.38009368
O       57.54400000     178.47200000      71.71200000  F       0.68814528       0.27036105       1.84502012
N       48.37100000     174.86500000      80.53200000  F       2.03009754      -0.14353524       1.97816843
C       48.08100000     173.98100000      81.60400000  F      -0.26454998      -0.39132285       0.35889743
C       44.34400000     175.54900000      73.60400000  F      -0.24930244       0.85309214      -0.01191364
C       44.10400000     176.97400000      73.11200000  F      -2.07868315      -1.27913410       0.94437459
O       43.04800000     177.55200000      73.33400000  F       0.54117283      -0.27396709       0.11160047
N       45.34300000     187.98800000      73.32800000  F      -0.98906597       0.25011756      -1.19153633
C       44.01100000     187.70000000      73.78800000  F      -0.02573790      -0.20311303       0.00689482
C       40.64600000     175.44500000      65.43000000  F       0.85087406       0.00892804      -0.21244481
C       41.89000000     176.12400000      64.89200000  F       1.99207489      -1.98879938       1.32566278
O       43.04500000     175.65300000      65.14300000  F      -3.02192029       1.37590081      -0.63431745
N       42.87500000     174.66500000      60.52700000  F      -0.53937743       0.35596567       0.67467777
C       41.90000000     173.71000000      60.95700000  F      -0.08013229      -0.20470581      -0.00213504
C       49.29000000     173.47900000      53.40900000  F       0.05319125       1.19808349       0.31923273
C       49.14800000     174.95100000      53.85500000  F      -0.07860995      -1.93160345      -1.12040248
O       49.04600000     175.81700000      53.03200000  F      -0.04712825       0.79792503      -0.72062027
N       53.10200000     176.00200000      61.50000000  F       1.53525589      -0.72950865       0.59297019
C       54.47400000     175.41800000      61.39000000  F      -0.99855304       0.43524381       0.02973766
C       60.05000000     189.24300000      73.95900000  F      -1.63513662      -0.05748527       0.07210874
C       58.49000000     189.38000000      73.95400000  F       2.99913669      -1.77433267      -0.02248435
O       57.80600000     188.43100000      74.22400000  F      -0.52906199      -0.63872039       0.57245488
N       50.51300000     194.28900000      72.73400000  F      -1.86856497      -2.03631575       0.19096756
C       49.41200000     194.11700000      73.68000000  F       0.34182527      -0.11008002      -0.23801286
O       44.57000000     181.16200000      63.51200000  F      -0.47083652      -0.03941054      -0.38774372
O       48.60300000     189.36900000      69.98000000  F      -0.94133857      -0.50196405      -0.31348803
O       50.73300000     181.88100000      62.89200000  F       0.15513494       0.04017067       0.16059374
N       51.87500000     188.49000000      66.29100000  F       0.20100691       0.38722138      -0.07874237
C       51.24300000     187.80100000      67.25400000  F       0.96672983      -0.09502727       0.73232693
C       51.87900000     187.57200000      68.49100000  F       1.24795721       1.53268585      -1.47479013
N       53.08500000     188.13200000      68.73400000  F      -0.52605295      -0.73403778       0.71852988
C       53.69200000     188.83900000      67.79400000  F      -1.23241441      -0.18027967      -0.81519849
C       53.07300000     189.03000000      66.56800000  F      -0.61787530      -0.70336359       0.95256930
C       49.97700000     187.08900000      66.95300000  F       0.47875038      -0.44856934       1.33396987
O       49.22000000     186.75300000      67.85200000  F      -0.10688710       0.65344964      -0.13742560
N       49.80900000     186.66500000      65.68700000  F      -0.45403581       0.25223618      -0.20841019
C       48.70400000     185.84800000      65.26000000  F       0.11007845      -0.62191077       0.06304668
C       48.40700000     186.17400000      63.81100000  F      -0.55200588      -0.14915703      -0.39550252
C       47.36200000     185.28400000      63.18300000  F       0.06517786      -0.22153801      -0.68739546
C       46.04900000     185.27100000      63.62900000  F      -0.30988317      -0.67884133      -0.61970847
C       45.09900000     184.46200000      62.98000000  F       0.19806081       0.55970543       0.78899100
C       45.41500000     183.65600000      61.91300000  F       0.77931742       0.12329430      -0.27215725
C       46.71700000     183.67000000      61.42700000  F       0.49934967       0.89379483       0.98982320
C       47.68300000     184.49600000      62.06300000  F      -0.96170612      -0.56589291      -0.07208431
C       49.10200000     184.38700000      65.39000000  F       1.64400946       0.77802847      -1.24174581
O       50.11000000     183.99900000      64.83200000  F       0.17218743       0.07659990      -0.25699912
N       48.35800000     183.54000000      66.08000000  F      -1.79019079      -1.04265965       1.05106989
C       48.60800000     182.12100000      66.22200000  F      -0.17305080       0.42485850       0.54789828
C       48.26300000     181.70300000      67.66500000  F       0.15814529      -0.26294374      -0.97945281
C       49.00500000     182.50400000      68.72100000  F       0.11501357       0.19505866       0.34133118
C       50.50000000     182.64600000      68.45100000  F       0.05730573       0.03458574      -0.20977493
C       48.78800000     181.86700000      70.08400000  F      -0.15182360      -0.00232844       0.28598274
B       47.72300000     181.23600000      65.16900000  F      -0.36881670      -0.07482483      -0.69782110
O       48.09200000     181.51000000      63.70100000  F       0.25803925       0.61636197       1.12500061
O       46.24600000     181.62500000      65.24400000  F       1.16028535      -0.29376866       0.72796926
H       48.30307137     178.75079626      61.93714938  T       0.00392066       0.00257762       0.00074257
H       48.44488546     179.93109426      63.05353060  T       0.00254405      -0.00254271       0.00226272
H       48.74231162     177.82566297      64.11017003  T      -0.00098264       0.00416755       0.00823520
H       46.23860407     179.47682983      64.69276281  T       0.00346135       0.00679416       0.00317744
H       47.59829278     177.32612542      66.43782724  T       0.00303280       0.00857208       0.00602270
H       45.90715643     177.34101859      65.95704500  T       0.00787452      -0.00668771      -0.00341488
H       46.52386480     178.54838588      67.09767560  T      -0.00948062      -0.00121232      -0.00345457
H       48.12627118     175.74076877      64.52906400  T      -0.00032914      -0.00151278       0.00017621
H       45.43847883     175.01016851      63.65691447  T       0.00008095       0.00555476       0.00921429
H       47.81887801     173.18207614      63.03483782  T       0.00172860       0.00192451      -0.00374738
H       46.60286996     175.20816329      61.64732692  T       0.00462403       0.00389773      -0.02862607
H       44.80349256     173.06580500      62.35552286  T      -0.00034211      -0.00154721       0.00019116
H       45.57833268     172.05640178      63.57576549  T      -0.00204761      -0.00174517      -0.00185791
H       45.98463219     171.86449730      61.86177808  T      -0.00206217      -0.00045438       0.00038972
H       44.42063954     174.31073212      65.47472261  T       0.00012505       0.00005354      -0.00020970
H       46.06194622     172.67329084      67.32155431  T      -0.00171597      -0.00535799      -0.00528198
H       44.52460203     173.42421759      69.18295274  T      -0.00558496       0.00179547       0.00017739
H       43.40171916     174.96213783      67.06785268  T       0.00040957      -0.00030852      -0.00012879
H       45.90763933     175.66770787      67.63688941  T      -0.00239648       0.00279122       0.00211436
H       46.67664503     174.65771547      68.85316744  T       0.00096953       0.00102780      -0.00393487
H       45.40023272     175.79456918      69.31444649  T       0.00288747      -0.00198856       0.00214147
H       49.54143057     173.70947127      66.39351716  T       0.00023110       0.00000724      -0.00015649
H       52.33373327     172.86111629      66.09718278  T      -0.00378271      -0.00303281       0.01181491
H       52.39136552     174.22677023      64.12332088  T      -0.00166645       0.00236807      -0.00183199
H       50.77281526     173.54532576      64.13276224  T       0.00017216       0.00068319      -0.00007609
H       53.82297531     175.14601036      65.76743823  T      -0.00163920       0.00169184      -0.00165213
H       53.27513994     176.63810203      68.23440358  T       0.00226824      -0.00854866       0.00475884
H       55.61295266     176.24552657      68.82471491  T       0.00126623      -0.00104578      -0.00002219
H       54.80590463     174.70684165      68.48296581  T       0.00326660      -0.00114951      -0.00016016
H       56.44231672     176.14644218      66.67098467  T      -0.00140557       0.00073831       0.00034648
H       52.97471301     177.50355163      65.27603709  T       0.00042030       0.00109468       0.00031557
H       55.19351559     179.44547979      65.11924484  T      -0.00031918       0.00067480       0.00042786
H       54.54274639     178.22408291      63.07484283  T      -0.00053169      -0.00001440       0.00070710
H       52.86273346     178.61860650      63.31509017  T       0.00073002      -0.00049310      -0.00051910
H       53.18768855     180.96566597      62.75846323  T       0.00084456      -0.00146317       0.00381791
H       54.92775867     180.83742902      62.85718157  T      -0.00001066      -0.00036244      -0.00113599
H       53.24207560     179.33938715      60.80861060  T       0.00246843      -0.00180621      -0.00242520
H       54.10274305     180.83661193      60.47997163  T       0.00188649      -0.00173418      -0.00190632
H       55.12830957     178.64725174      57.60856319  T       0.00044402       0.00003832       0.00010730
H       53.96872227     179.42378089      58.49313759  T       0.00005033       0.00003726       0.00078495
H       57.10588598     177.78768766      58.46233615  T       0.00010341      -0.00010279       0.00009451
H       57.45124729     177.88645595      60.10384205  T       0.00020922       0.00003709      -0.00022202
H       54.92417803     181.65832562      65.28105444  T       0.00082347      -0.00001746       0.00410069
H       52.18150612     182.66736381      65.44853718  T       0.00040432      -0.00104035      -0.00199227
H       54.68830804     183.68662241      66.90690805  T      -0.00087212       0.00403553      -0.00083565
H       53.22787793     183.05839270      67.67445125  T       0.00389410      -0.00036818       0.00070377
H       53.17899778     184.59274572      66.80899061  T      -0.00248234      -0.00169073       0.00315820
H       51.80706290     184.53281870      64.26671992  T       0.00250371      -0.00804876       0.00634808
H       54.04779251     185.52772557      62.67842916  T      -0.00002081       0.00087098       0.00089472
H       52.31592130     185.69322481      60.70650281  T      -0.00542733      -0.00259586      -0.00224271
H       50.88548243     184.09843612      62.60900745  T       0.00440861      -0.01793037      -0.00727159
H       53.08511223     182.90407832      61.74119414  T       0.00123308      -0.00096156      -0.00157418
H       54.17700197     183.91741759      60.79971901  T       0.00002816      -0.00230560      -0.00032539
H       52.69810030     183.27802512      60.06702644  T       0.00164045      -0.00151562       0.00036354
H       53.96890144     187.62919830      61.94719210  T      -0.00021916       0.00067384      -0.00048956
H       51.78799440     189.34272279      63.01440667  T      -0.00430682      -0.00729039      -0.00667942
H       54.67672401     190.22070977      62.47870070  T      -0.00007302      -0.01264225       0.00283244
H       54.23613763     189.58333307      64.04914806  T      -0.00938462       0.00321151       0.00238526
H       53.48099261     191.07633670      63.45063960  T       0.00149129       0.00028505      -0.01290568
H       55.79322499     178.63570568      69.12199241  T       0.00101083      -0.00042957      -0.00021445
H       55.45194574     179.83445143      71.76655701  T      -0.00039827      -0.00210066       0.00176084
H       53.45592751     179.19852463      69.51260291  T       0.00126741      -0.00042634       0.00008774
H       53.21172218     181.07290065      71.92298489  T      -0.00130821       0.00018565      -0.00012821
H       52.38339025     179.53290487      71.74590722  T      -0.00010619       0.00128037       0.00095710
H       51.99052763     180.87332405      70.67189575  T      -0.00050218      -0.00032699       0.00150284
H       54.89815218     181.81353789      70.18860404  T      -0.00143116       0.00126347      -0.00097222
H       53.62536711     181.64233434      68.98385689  T       0.00088546      -0.00061503      -0.00089659
H       55.17036194     180.82424742      68.75691941  T       0.00088506       0.00187041       0.00082390
H       54.24204505     178.83426451      73.45875167  T       0.00142390      -0.00055043       0.00057570
H       53.53558985     175.99729668      73.01047789  T      -0.00445084       0.00219401      -0.00474497
H       53.10036191     176.00338250      75.48514679  T       0.00032026       0.00022778      -0.00032529
H       53.55710485     177.68544312      75.54663061  T      -0.00159706       0.00019942      -0.00194423
H       55.87165385     177.10205186      74.75594625  T      -0.00021838      -0.00045383       0.00017463
H       55.46786440     176.29393024      76.25132502  T      -0.00014181      -0.00026852      -0.00050566
H       54.68188569     174.29320602      74.75715581  T      -0.00063299       0.00123377      -0.00098331
H       55.52018171     175.06382851      73.44169024  T       0.00073021      -0.00258621       0.00028293
H       57.11259667     174.67279005      76.00363642  T       0.00078245      -0.00018298      -0.00052111
H       56.74018587     173.22598166      75.08566624  T       0.00312465      -0.00011409      -0.00139061
H       57.96300698     175.66655307      73.87136929  T       0.00027693      -0.00079741      -0.00633391
H       57.68442547     174.23398772      73.09202711  T       0.00200916      -0.01306355       0.00512624
H       51.53969084     175.91485488      72.03008255  T      -0.00081990      -0.00015922      -0.00030412
H       49.56611755     177.94301017      72.74660216  T       0.00048425       0.00086732      -0.00343885
H       49.48364423     175.73290126      70.64488648  T      -0.00017733       0.00059294      -0.00038158
H       48.30386867     177.00324476      70.81645987  T       0.00033346      -0.00042968       0.00008015
H       50.16583012     178.67837055      70.46772862  T       0.00020514      -0.00051956      -0.00014938
H       51.23656563     177.35131489      70.12911870  T      -0.00055988      -0.00011346       0.00110931
H       49.73446027     176.64222224      68.24216964  T       0.00008614       0.00037699       0.00025154
H       48.68406841     177.99863033      68.57680464  T       0.00057994       0.00019258       0.00007443
H       50.57327041     179.58381047      68.14291482  T       0.00019518       0.00001121      -0.00150077
H       51.66612117     178.24603997      67.93716226  T      -0.00009541       0.00041711      -0.00122282
H       49.41560557     178.94844289      66.12598138  T      -0.00471167      -0.00664077       0.00679256
H       50.24692631     177.51796549      65.98460545  T       0.00181498       0.00198993      -0.00565301
H       50.33032012     175.09922678      74.16546842  T      -0.00000033      -0.00096448      -0.00034592
H       47.51545592     174.51569088      74.81851281  T       0.00058915       0.00167661      -0.00114908
H       49.93165613     172.70589607      75.15773035  T      -0.00029877       0.00116792       0.00102430
H       46.94698211     172.27850456      75.74181266  T       0.00012237      -0.00064144       0.00128945
H       48.20266259     172.45833982      76.95836819  T      -0.00108570      -0.00105147       0.00008746
H       48.19096075     171.04336444      75.90498905  T      -0.00128927       0.00022192       0.00102449
H       47.48518796     172.51096751      73.29905885  T       0.00072218      -0.00031162      -0.00140996
H       48.74547510     171.28682987      73.43431762  T      -0.00106761       0.00042013      -0.00169804
H       49.12181532     172.88270446      72.77922760  T      -0.00082984      -0.00138376      -0.00095005
H       46.91205924     175.35551770      76.76978178  T       0.00024730       0.00133098      -0.00100597
H       49.14168473     176.20242673      78.57436285  T       0.00017662      -0.00014074      -0.00216805
H       46.21680001     177.06866578      78.18983438  T       0.00297514       0.00059118      -0.00751967
H       48.73742500     178.79492322      78.23868596  T      -0.00004149      -0.00095789      -0.00000268
H       48.41409171     177.80012456      76.83602132  T      -0.00085153       0.00095811      -0.00058322
H       48.17079725     178.05775109      80.35865031  T      -0.00082667       0.00169747      -0.00016590
H       46.68943458     177.16364432      80.65886903  T       0.00210912       0.00012064       0.00073797
H       46.61115280     178.80050202      80.01408108  T      -0.00084771      -0.00119708       0.00141897
H       46.32980127     179.68382197      78.01898240  T       0.00356956       0.00342330      -0.00028639
H       46.20109575     178.79098769      76.51734038  T      -0.00244225      -0.00045217       0.00408002
H       47.37773071     180.10752062      76.69085047  T      -0.00054133      -0.00273638      -0.00403017
H       46.00422554     177.07561020      72.41762370  T      -0.00304697      -0.00546884       0.00551120
H       44.15577525     179.35713254      72.21284739  T       0.00020049      -0.00057006       0.00095964
H       46.30434703     180.67523113      72.09685836  T       0.00019536      -0.00050719       0.00004921
H       47.24203977     179.20493537      72.01344963  T      -0.00050645      -0.00008140       0.00032744
H       46.73489901     178.63199501      74.28711525  T      -0.00209992      -0.00093449      -0.00177378
H       45.38310851     179.73692982      74.34657447  T       0.00059896      -0.00063892       0.00060408
H       49.78127589     181.16001969      74.65297766  T       0.00093119      -0.00096162      -0.00084048
H       49.17236940     180.47323287      73.14684157  T       0.00150998      -0.00044057       0.00047683
H       49.35665825     179.44923005      74.57655235  T       0.00130932       0.00045655      -0.00081641
H       43.58944566     180.23526078      70.28774097  T       0.00083269      -0.00084941       0.00183298
H       45.43580873     180.15680468      68.08092293  T       0.00116560       0.00481078       0.00578711
H       42.57082964     179.07758194      67.85821852  T       0.00086514      -0.00197762       0.00113923
H       44.01256690     178.08093067      67.71115674  T       0.00001527       0.00021086      -0.00245484
H       43.66279465     179.31879920      66.49272405  T      -0.00293859      -0.00030731       0.00040770
H       44.97956773     182.09128612      66.75254372  T       0.00064424      -0.00031431       0.00096347
H       42.78567503     183.82769296      67.76603027  T      -0.00034036      -0.00287783      -0.00034926
H       43.40666317     183.82638810      66.10453336  T       0.00027102      -0.00061733       0.00013738
H       43.41741364     185.67640770      68.71870809  T      -0.00103389       0.00159984      -0.00247699
H       44.65623243     187.53445720      69.15455623  T       0.00176105       0.00043908       0.00101657
H       45.87901977     186.98589158      68.00423269  T      -0.00093349      -0.00018426      -0.00049046
H       47.82747816     186.44550976      68.96990939  T       0.00066365       0.00016309       0.00050831
H       48.00585592     184.59298261      70.96473261  T      -0.00135239       0.00056066       0.00145467
H       49.97015888     186.93378761      70.49572319  T      -0.00151030      -0.00013411      -0.00346635
H       49.91990267     185.49972396      69.45835193  T       0.00209626      -0.00225203       0.00181937
H       50.41821602     185.36142340      71.15556050  T       0.00082937       0.00435153       0.00153741
H       48.12853702     188.22462848      71.48638542  T       0.00037325       0.00037033       0.00031593
H       48.52952895     187.87237918      74.30340151  T      -0.00148168      -0.00291721      -0.00030555
H       47.20213452     190.16563624      72.76234178  T       0.00067751       0.00099091       0.00053511
H       48.92953755     190.03275156      73.06688856  T      -0.00090323       0.00151717      -0.00003101
H       47.80808152     190.28472633      74.41382044  T       0.00040094       0.00139684      -0.00123873
H       40.76044639     177.49512913      63.80263897  T      -0.00258637       0.00540295       0.00864903
H       42.80988176     179.08492647      64.06396622  T       0.00015202      -0.00103893       0.00135553
H       43.75490776     177.57580275      63.99789449  T      -0.00004057      -0.00037357      -0.00113678
H       44.65519274     178.80704345      61.96362031  T      -0.01777544      -0.01010773       0.02052101
H       42.78307522     179.29940130      59.79954876  T      -0.00033382       0.00025911       0.00247063
H       44.59790294     180.92901546      60.32230362  T       0.00194721       0.00075601      -0.00137618
H       44.89052425     180.14618305      58.74787899  T       0.00330813      -0.00031636       0.00038017
H       46.04111724     178.63469781      60.77117997  T       0.03450960      -0.00740182      -0.01366252
H       45.01511667     176.85585353      61.06243976  T      -0.01483076       0.02995402      -0.00019043
H       44.95019543     175.53306625      58.42774719  T       0.00517900      -0.00069778       0.00031287
H       45.96911736     175.06187799      59.76250739  T      -0.00040477      -0.00066925      -0.00303384
H       49.25098727     174.43486791      55.84189853  T       0.00002768       0.00045143       0.00043743
H       48.16581748     177.02404200      55.03197850  T      -0.00016991       0.00002520       0.00024419
H       48.55661374     175.67861610      57.75028444  T      -0.00170570       0.00112052       0.00171762
H       47.04650757     175.73899098      56.85526485  T       0.00025757       0.00010080       0.00102400
H       49.53759035     178.66103567      54.63306078  T      -0.00142699       0.00189761       0.00193374
H       52.23332461     178.65539797      55.37734441  T       0.00012589      -0.00051808       0.00244410
H       50.41718353     181.07033378      54.86424504  T       0.00130519       0.00125257      -0.00045521
H       51.26725598     180.16348508      53.61460555  T      -0.00106817       0.00203963      -0.00006712
H       52.17592073     181.10721062      54.80412404  T      -0.00063044       0.00049210      -0.00197735
H       49.44696030     179.41136936      57.39565399  T       0.00192747      -0.00023729      -0.00154352
H       51.26225960     180.92858140      59.17245410  T      -0.00095648       0.00195029      -0.00500167
H       48.18883759     180.75229021      59.23574051  T       0.00152969      -0.00192658       0.00010356
H       49.15268710     181.71307125      60.34711947  T       0.00267621      -0.00476085       0.00139753
H       47.93349072     181.41571729      56.93462054  T       0.00027990       0.00018455       0.00065792
H       50.42969134     183.59131630      59.52231321  T      -0.00010493       0.00013028      -0.00053498
H       48.12645296     183.22489870      55.23330271  T      -0.00069954      -0.00103123       0.00083907
H       50.77672590     185.27756558      57.76261688  T      -0.00060593       0.00047078      -0.00214028
H       49.12559903     185.16595428      54.68552788  T      -0.00717669      -0.01699542       0.00864777
H       50.81627177     177.73225351      58.76093984  T      -0.00072588       0.00312475       0.00032268
H       51.05708333     177.47051983      61.70888402  T       0.00431730       0.00391606      -0.00229306
H       50.15450725     175.12700606      61.52987741  T      -0.01213056      -0.00410775      -0.00054937
H       49.86767033     175.39467610      59.80910255  T      -0.00302029      -0.00510348       0.00297941
H       48.22988697     176.18504067      61.91695878  T       0.00905794       0.01414634       0.00735048
H       58.63281273     191.29313984      73.26209966  T      -0.00042042       0.00026681      -0.00007742
H       56.04287863     190.06421344      74.00980259  T      -0.00034109       0.00042047       0.00021215
H       55.42379771     192.44575792      74.76885561  T       0.00050592       0.00026613       0.00037404
H       57.05852686     192.94569668      74.43692797  T      -0.00080524       0.00000636       0.00015225
H       58.93554856     191.81030432      75.70645537  T      -0.00096138       0.00018772      -0.00042134
H       54.88309622     191.50596704      76.81926989  T       0.00068271       0.00036000      -0.00093181
H       59.63008790     191.06402715      77.94156620  T      -0.00034394       0.00010787       0.00018631
H       55.50155318     190.80875957      79.07733360  T       0.00018529       0.00021826      -0.00026733
H       57.88437913     190.53864742      79.63622295  T       0.00022129       0.00029173      -0.00032597
H       54.16814084     190.88565894      72.86367868  T       0.00080063      -0.00633596      -0.00308168
H       54.84866979     192.50027345      70.55315510  T       0.00781057      -0.00380153       0.00676776
H       52.94057456     191.66983769      69.37433159  T      -0.00258276      -0.00171457       0.00021429
H       53.58465410     190.24718756      70.16149342  T      -0.00086712       0.00017208      -0.00058053
H       53.27891824     195.95792873      72.32232134  T       0.00497109      -0.00123530      -0.00800643
H       50.85741029     196.10248333      70.43307933  T       0.00011886      -0.00038868       0.00230183
H       51.96372191     197.41435268      70.85411257  T      -0.00029302      -0.00081548       0.00194673
H       52.37878567     196.18276849      68.53372037  T       0.00029746      -0.00022161       0.00036112
H       53.78143667     196.40529963      69.58725692  T      -0.00081335       0.00046372       0.00047779
H       53.84694840     194.01360675      69.30643568  T      -0.00034799      -0.00004873       0.00026435
H       52.07321688     193.87811080      69.24653217  T       0.00025053      -0.00081562       0.00137147
H       44.91541648     170.88699618      68.25664360  T      -0.00019350      -0.00041352       0.00011363
H       42.33117418     170.27093583      66.85198162  T       0.00148912      -0.00281778      -0.00221806
H       42.68544211     169.83451394      68.52869651  T      -0.00326965       0.00168772      -0.00176572
H       43.51819773     169.00559537      67.19571701  T      -0.00091722      -0.00116867       0.00370883
H       48.31726406     172.79924276      67.87784467  T      -0.00139117      -0.00299866      -0.00122725
H       49.14197233     172.31268538      69.36632085  T      -0.00176067       0.00271610      -0.00085988
H       48.68219138     171.09467021      68.16963253  T       0.00074590      -0.00019798       0.00357793
H       50.65114817     189.34087673      61.00935182  T      -0.00071903       0.00045062      -0.00094667
H       52.26127835     189.72257511      58.53670690  T      -0.00132275       0.00663840       0.00034343
H       50.67842026     190.48925067      58.72619097  T      -0.00495830      -0.00457056      -0.00011435
H       50.81105253     188.71733711      58.66945275  T       0.00660975      -0.00201609      -0.00107473
H       58.00878519     178.18597102      68.52326808  T       0.00282262       0.00256117      -0.00009070
H       58.62287513     177.01540236      69.69642960  T      -0.00147523      -0.00029842      -0.00337635
H       59.25868486     178.66171274      69.67859429  T       0.00150014      -0.00349564       0.00118078
H       49.27165551     175.35432723      80.57652225  T       0.00025282      -0.00053631       0.00031144
H       47.13381134     173.47753119      81.40786019  T      -0.00076723       0.00168540       0.00185212
H       47.99088222     174.52628994      82.54413958  T       0.00199581      -0.00190463       0.00079462
H       48.85735294     173.22155199      81.70409951  T      -0.00237748      -0.00185736      -0.00063253
H       45.36527119     175.23157410      73.39868034  T       0.00080718       0.00184881       0.00457790
H       43.65925988     174.86188660      73.11104555  T       0.00399540      -0.00104835      -0.00266416
H       44.17597470     175.49140940      74.67760643  T      -0.00486618      -0.00223783      -0.00152082
H       45.52184893     187.83329257      72.32824173  T       0.00022207       0.01602876      -0.00259986
H       44.03060290     187.56324275      74.86904983  T      -0.00125242       0.00604248       0.00013834
H       43.64228713     186.77972991      73.33350718  T       0.00351034      -0.00318331       0.00521440
H       43.33499055     188.51967406      73.54806521  T      -0.00218976      -0.00410728      -0.00505553
H       39.73833392     175.91586449      65.05753510  T      -0.00030410      -0.00508484      -0.00374281
H       40.64107651     175.48591036      66.51804427  T      -0.00332940       0.00414223      -0.00078781
H       40.64502145     174.39622285      65.13687522  T       0.00282455      -0.00095094       0.00585887
H       42.71729492     175.64609359      60.83103248  T       0.00386282      -0.00028433      -0.00096582
H       42.17764374     172.72553530      60.58068625  T      -0.00195770       0.00071322      -0.00190997
H       40.91525611     173.96906374      60.56923293  T      -0.00056817       0.00028086       0.00310500
H       41.86247589     173.67037403      62.04599291  T       0.00174793      -0.00288170      -0.00058765
H       49.36052963     173.42962759      52.32445516  T       0.00193885      -0.00132309       0.00062453
H       48.42573526     172.89851871      53.72553176  T       0.00011146      -0.00068904      -0.00247323
H       50.18698161     173.03378818      53.83485019  T      -0.00169031      -0.00181478       0.00056188
H       52.68208623     176.12777942      62.43320692  T       0.00005075       0.00002811      -0.00003441
H       54.75406909     175.39258841      60.33798231  T       0.00125351       0.00184617       0.00072443
H       54.48922662     174.40405577      61.78442876  T       0.00038107      -0.00044205      -0.00234285
H       55.19462278     176.02910988      61.92930712  T       0.00007284      -0.00195774       0.00125933
H       60.53298972     190.18931803      73.72672124  T       0.00135234      -0.00060883       0.00230578
H       60.35547170     188.50536050      73.22042195  T       0.00147655       0.00193041      -0.00068987
H       60.38914170     188.90755525      74.93631364  T       0.00105083      -0.00203036      -0.00154106
H       50.88805135     193.40391343      72.33619738  T       0.00376060       0.00095239       0.00526155
H       49.34373138     195.00296693      74.31121267  T      -0.00510175       0.00215021      -0.00490592
H       49.58803025     193.24864107      74.31533936  T       0.00055126       0.00505001       0.00537596
H       48.47229801     193.98834834      73.14440815  T       0.00119322      -0.00647552       0.00096899
H       51.46100413     186.91836094      69.22457292  T       0.00241687       0.00035754       0.00169930
H       54.65227319     189.27510511      68.00919195  T      -0.00064704      -0.00102313       0.00227434
H       53.52988327     189.66241593      65.83153216  T      -0.00034256       0.00107323       0.00066951
H       50.54559936     186.80253184      65.01060431  T       0.00008154      -0.00018883       0.00004556
H       47.84084296     186.05365506      65.90867899  T       0.00222800       0.00112098       0.00247304
H       48.10330814     187.22192927      63.72071744  T       0.00106867      -0.00029986      -0.00146032
H       49.33870598     186.08564963      63.24341311  T      -0.00069137      -0.00046156      -0.00032940
H       45.76952172     185.86750307      64.47934524  T       0.00115559      -0.00014029       0.00009600
H       44.08692725     184.46194243      63.35123648  T       0.00025986       0.00102714      -0.00038966
H       44.66585702     183.03578030      61.45060805  T      -0.00168234       0.00457774      -0.00254376
H       46.99510276     183.05412553      60.58959744  T      -0.00030478       0.00266958      -0.00171859
H       48.69881574     184.48777863      61.71057268  T       0.00000512       0.00064903       0.00078013
H       47.46932961     183.84490066      66.49344309  T      -0.00066457       0.00220534      -0.00304033
H       49.65031860     181.90628681      65.97260068  T       0.00068746       0.00417354      -0.00000176
H       48.47690135     180.63693443      67.78624020  T      -0.00041974       0.00029582      -0.00110367
H       47.18263044     181.80399804      67.80920658  T       0.00041141      -0.00008587      -0.00072029
H       48.56958338     183.52067861      68.72641009  T      -0.00173682      -0.00098160       0.00336320
H       50.97000952     181.67264630      68.32134022  T       0.00138300       0.00075494       0.00616001
H       51.00934004     183.15140808      69.27278911  T      -0.00064050       0.00441994      -0.00335773
H       50.68173478     183.22401624      67.54386191  T       0.00085159      -0.00539709      -0.00225155
H       49.18535225     180.85239483      70.10502100  T      -0.00016568       0.00049492       0.00189344
H       47.72625504     181.80810674      70.32823495  T       0.00078150      -0.00161477       0.00102556
H       49.28339771     182.42978588      70.87650670  T      -0.00146734      -0.00096592       0.00099850
H       55.95852619     179.06816422      61.56453824  T      -0.00431700       0.00221944       0.00381800
H       58.82893704     174.30401765      74.30481262  T      -0.00048697       0.00222896       0.00419186
H       51.02217844     179.00151308      65.81669876  T       0.00796077      -0.00927681       0.00229446
H       48.74424178     182.23965048      63.73788306  T       0.01448736      -0.01397172       0.00319339
H       46.06105898     182.05144133      64.38487691  T       0.00250819      -0.02759806      -0.01629260
H       44.34741134     180.44909833      62.88248423  T      -0.03421745       0.00686996       0.00957331
H       43.75856158     181.68282449      63.63261492  T      -0.01117345      -0.04545285       0.00192356
H       49.46171481     189.75599761      70.16248645  T      -0.00007490       0.00006129       0.00031933
H       48.77929521     188.67740337      69.31587992  T       0.00021836       0.00056291      -0.00051135
H       51.07042881     181.51259471      63.72668928  T       0.00698286      -0.00040519      -0.00542174
H       50.53239493     181.09205451      62.35183099  T       0.02452447       0.00752232      -0.01511190
