533
Properties=species:S:1:pos:R:3:move_mask:L:1:forces:R:3 6V8_MS_B_LYS33=T |=T Arg19=T repaired=T +=T controlled=T bridge=T water=T charge=-1 energy=-2482.33243300322 stress="0.0 0.0 0.0 0.0 0.0 0.0 0.0 0.0 0.0" pbc="F F F"
N       47.86000000     179.16600000      62.75300000  F       0.03839568      -0.70834519      -0.27177729
C       47.74100000     178.18400000      63.82800000  F      -0.08562329       0.67864536       0.15090539
C       46.89800000     177.01300000      63.45800000  F      -0.66428202       1.03302443      -1.12934632
O       45.92400000     177.16600000      62.74200000  F      -0.02042025      -0.09121157       0.22059929
C       47.11500000     178.90200000      65.03000000  F       0.59177361       0.06946158       0.98724232
O       48.05800000     179.83300000      65.54700000  F      -0.30741249       0.25489187       0.18599075
C       46.75800000     177.97700000      66.20200000  F      -0.17882909      -0.20629860      -0.42753504
N       47.29700000     175.82200000      63.92600000  F       0.65059153      -1.23761261      -0.01115474
C       46.45400000     174.65200000      63.87400000  F       0.22278450      -0.44356062       0.61560650
C       46.46600000     174.00900000      65.26500000  F       1.08318876       1.09689323      -0.55482528
O       47.51200000     173.74100000      65.82500000  F       0.05681415      -0.37754607      -0.29017792
C       46.85700000     173.64600000      62.77200000  F      -0.70840716      -0.06221007      -0.13599030
O       47.03300000     174.32800000      61.52200000  F       0.01888557       0.23307523       0.51202775
C       45.74000000     172.58800000      62.63800000  F       0.45463002       0.13478440      -0.00061512
N       45.27100000     173.88600000      65.86300000  F      -1.07850650      -0.13979128       0.55308695
C       45.10500000     173.16100000      67.09700000  F      -0.36130676      -0.30592491       0.11971987
C       44.05700000     172.10600000      66.86000000  F      -1.50084884       2.09424177      -2.61498096
O       43.14400000     172.33000000      66.03400000  F       1.43826309      -0.47183739       1.52314652
C       44.68600000     174.04700000      68.28800000  F       0.09347965       0.15580675      -0.54237530
O       43.45900000     174.68700000      68.01900000  F      -0.52876094      -0.05906720      -0.02740453
C       45.72600000     175.09400000      68.54400000  F       0.57075840       0.34007745       0.26653100
N       50.41500000     173.24300000      66.68500000  F       0.22067501       0.71468388      -1.04252455
C       51.64600000     173.72200000      66.09000000  F       0.16043095       0.30593830       0.84893103
C       52.22400000     174.79300000      67.03300000  F      -1.79345671      -0.87908231       1.46502593
O       51.71300000     174.99200000      68.14900000  F       0.79902001      -0.13750052      -1.70656520
C       51.44500000     174.21900000      64.66800000  F      -0.50838368       1.44080330      -0.41461603
C       50.85100000     175.67100000      64.62000000  F       0.73928750      -0.83213690       0.18203565
O       49.89900000     175.90100000      65.33700000  F      -0.96927380      -0.62653513       0.63571498
O       51.36800000     176.53800000      63.92800000  F       0.94785195      -0.22508854      -0.62586192
N       53.29800000     175.45600000      66.58800000  F       0.56788998       0.81234442      -1.16522936
C       53.98000000     176.37900000      67.42500000  F       0.18333854       0.56083689       0.73637612
C       54.42000000     177.68400000      66.77600000  F       0.99225010       0.86200283       1.81747553
O       55.29400000     178.39100000      67.32700000  F      -1.35925970      -1.48031255      -1.45142449
C       55.14400000     175.64800000      68.02800000  F       0.25228714      -0.00845784       0.75620635
O       56.10400000     175.32300000      67.08600000  F       0.32338929      -0.02519691      -0.29842996
N       53.73900000     178.07000000      65.67300000  F       0.00667564      -0.01473558      -0.61119394
C       54.13100000     179.24900000      64.92000000  F      -0.62801237       0.20200221      -0.12659366
C       53.30200000     180.45100000      65.35500000  F      -0.55456934      -2.83306873      -0.06533611
O       52.12100000     180.31100000      65.52100000  F      -0.62115107       0.25085299      -0.17090606
C       53.87800000     179.01400000      63.43500000  F       0.10785332       0.36135141      -0.35774861
C       54.02700000     180.29000000      62.55900000  F      -0.12638958      -0.43421782       0.82948866
C       54.11000000     179.93900000      61.10900000  F      -0.03573677      -0.05215825      -0.57704278
N       55.30700000     179.17700000      60.79000000  F      -0.27242451       0.19061428       0.75659699
C       55.63600000     178.74900000      59.56100000  F       0.90508049      -0.16742175       0.52917605
N       54.89600000     179.02000000      58.51500000  F      -1.05175294       0.18966448      -1.39301609
N       56.79600000     178.10500000      59.36800000  F       0.51397459      -0.35704083       0.10488930
N       53.93000000     181.57900000      65.50300000  F       2.08360520       2.54824312      -0.06373442
C       53.26600000     182.85600000      65.52000000  F      -0.05583057       0.42547038       0.08648898
C       53.69100000     183.73000000      64.34400000  F       2.26143666      -0.50124352       1.18991107
O       54.86600000     183.78000000      63.98800000  F      -0.90278582      -0.55480080      -0.16725700
C       53.60800000     183.58900000      66.80600000  F      -0.28448929       0.13922436      -0.05692164
N       52.76300000     184.56000000      63.88700000  F      -2.12701878       0.61839299      -0.36820672
C       52.95600000     185.45200000      62.79600000  F       0.46338799       0.44097401      -0.69478001
C       52.44100000     186.84600000      63.06900000  F      -0.98472960      -1.20164181       0.59413916
O       51.42100000     187.04100000      63.69000000  F      -0.06708234      -0.16319593      -0.10832090
C       52.35300000     184.90300000      61.47200000  F       0.19769003      -0.86201582       0.37664729
O       51.03100000     184.45400000      61.69800000  F      -0.51505342       0.57607034       0.13948480
C       53.12900000     183.68100000      60.98200000  F       0.31866256       0.30188286      -0.08184430
N       53.14600000     187.82700000      62.51900000  F       1.27590688       1.53582596      -0.52806692
C       52.76100000     189.24900000      62.50900000  F       0.57400697      -0.70423979      -0.46393540
C       52.67800000     189.56500000      61.02800000  F       1.59034542       0.89046452       0.53151771
O       53.69300000     189.79000000      60.39100000  F      -0.08832885      -0.31754329       0.22620327
C       53.84300000     190.08700000      63.16900000  F      -0.25535634       0.01007528       0.14370043
N       56.06200000     178.77600000      70.10600000  F      -0.78594944       0.72305828      -1.05296365
C       55.01900000     179.19100000      70.99100000  F      -0.89190824      -0.86664789       0.07826350
C       54.41400000     177.93400000      71.61200000  F      -0.13390671      -0.66102013      -2.20047719
O       54.12100000     176.98500000      70.87400000  F       0.42533677       0.99227602       0.80028297
C       53.88000000     179.91700000      70.23400000  F       0.46209380       0.12924834       0.19929962
C       52.80800000     180.37200000      71.19200000  F      -0.47040617      -0.08518580       0.33444674
C       54.42500000     181.11400000      69.49900000  F       0.18381478       0.16775163      -0.36875099
N       54.14500000     177.97100000      72.92100000  F      -0.14662890      -0.14452242       1.52516051
C       53.36600000     176.92500000      73.57300000  F      -0.71645296       0.34087172      -0.23382826
C       51.87300000     177.28800000      73.49500000  F       2.57968567      -0.35740433       0.25086612
O       51.45600000     178.15600000      74.18100000  F      -0.84691724       1.95506778       1.46969950
C       53.75900000     176.74600000      75.01900000  F       0.10356944      -0.02936968       0.20795305
C       55.21400000     176.33700000      75.18500000  F       0.23481835      -0.32775279      -0.12792215
C       55.51700000     174.96900000      74.53300000  F      -0.10735577      -0.10785529       0.48302358
C       56.83900000     174.31600000      75.00400000  F      -0.33826825       0.38856446      -0.38223846
N       57.89700000     174.64600000      74.01500000  F       0.31908480      -0.01694732       0.02029791
N       51.13400000     176.62500000      72.64300000  F      -1.43001666      -1.87246157      -1.81282361
C       49.71600000     176.90100000      72.43200000  F      -0.35578067       0.20672401      -0.13675781
C       48.77200000     176.04900000      73.26900000  F      -3.31538110       2.15888033      -0.89776468
O       47.52800000     176.28000000      73.26500000  F       2.81623004      -0.52809340      -0.22643183
C       49.37100000     176.78000000      70.95000000  F      -0.84190042      -0.65139706       0.51888629
C       50.18100000     177.65300000      70.07500000  F       0.74271934       0.64152346       0.13309484
C       49.72600000     177.66300000      68.64600000  F      -0.05975465       0.00125189      -0.64068179
C       50.62200000     178.54800000      67.79200000  F       0.03021102      -0.16339111      -0.06938412
N       50.30600000     178.48400000      66.33800000  F       0.09351479       0.04976325       0.38551247
N       49.31500000     175.10600000      74.01100000  F       1.29816951      -1.72702174       1.43427652
C       48.58100000     174.35100000      75.03000000  F      -0.25439544       0.14371070      -0.31697073
C       48.87400000     174.86500000      76.41100000  F      -0.32674775       0.39006111      -1.86829729
O       49.97800000     174.85800000      76.83600000  F       2.47964175      -0.51209164       0.80487074
C       48.86300000     172.86200000      74.93600000  F      -0.30728344      -0.31479132      -0.31555120
C       48.00700000     172.11800000      75.94000000  F      -0.00111768      -0.23055287       0.39501808
C       48.53800000     172.35300000      73.53300000  F       0.22283654       0.05396448      -0.12158735
N       47.88300000     175.43300000      77.07900000  F      -1.72984950       0.81085292       1.62486617
C       48.07500000     175.99100000      78.43700000  F      -1.25050513      -0.86535362       0.03466735
C       47.60000000     174.96900000      79.48700000  F      -2.81183202       0.43013086      -2.57149065
O       46.50400000     174.40000000      79.36000000  F       1.51157032       0.58384000       0.02057987
C       47.23000000     177.28900000      78.56000000  F       1.06113169      -0.45278738       0.49106411
C       47.92700000     178.30100000      77.68600000  F       0.04981941       0.03261673      -0.58706161
C       47.16900000     177.86500000      79.97500000  F      -0.21348619      -0.40896872       0.21733129
C       46.91300000     179.26200000      77.19800000  F      -0.38836470       0.84229128      -0.09973366
N       45.06900000     177.49700000      72.37500000  F       1.98399416       1.08967044      -1.34808000
C       45.08700000     178.88400000      71.87400000  F       0.80464488      -0.43541260       0.22401007
C       45.16900000     178.92200000      70.35700000  F       3.18106281      -1.61186806       0.19644104
O       46.09600000     178.35500000      69.73900000  F      -1.55649595       0.62700168       1.05157619
C       46.33400000     179.63700000      72.44600000  F      -0.66862041       0.01230977      -0.51818477
C       46.39300000     179.61300000      73.94600000  F       0.08321328      -0.23983753       0.39449444
S       47.39400000     180.86300000      74.73100000  F       0.69438232       0.10595947      -0.56408086
C       49.08400000     180.44300000      74.22900000  F      -0.75066847      -0.02683851       0.08356436
N       44.31000000     179.72300000      69.76300000  F      -1.64355801       1.27105421      -0.61120986
C       44.37900000     180.09100000      68.37300000  F      -0.72257290       0.66174717      -0.10197977
C       43.70300000     181.47000000      68.24700000  F      -0.14155836      -0.91554173       1.47273221
O       42.76100000     181.74200000      68.96300000  F      -0.16725477      -0.24973395      -0.15770787
C       43.61800000     179.08600000      67.55700000  F       0.04013976      -0.28183249      -0.32026852
N       44.21300000     182.35000000      67.39100000  F       0.57839652       1.15396704      -1.77484861
C       43.68400000     183.70300000      67.15500000  F       0.04561828      -0.91997600       0.09380159
C       44.74000000     184.66900000      67.54400000  F       1.91488314      -2.21818396      -0.57435088
O       45.90700000     184.42800000      67.24000000  F      -1.11100084       0.76957750      -0.13244323
N       44.35800000     185.66900000      68.31100000  F      -1.87836624       1.64959065       0.73079290
C       45.21700000     186.65900000      68.81200000  F       1.02639751       0.12513272       0.59821352
C       46.03400000     186.08700000      69.94800000  F      -1.39347552       0.25331259       0.15958692
O       45.50900000     185.57800000      70.91900000  F      -0.26208662       0.04826929      -0.33354975
N       47.35700000     186.20700000      69.84900000  F       1.70379919       0.01131647       0.03620165
C       48.24700000     185.66100000      70.87300000  F       0.84095188       0.61439535       0.21695805
C       48.00300000     186.30600000      72.24300000  F       0.17092051      -2.52800402       0.76227527
O       47.89400000     185.60300000      73.25900000  F       0.19593943       0.61841637      -1.42824853
C       49.74500000     185.87000000      70.46700000  F      -0.92477491      -0.21483568       0.17497249
N       47.99700000     187.63100000      72.31600000  F      -0.31872100       1.39981704       0.25853933
C       47.79000000     188.29000000      73.60400000  F      -1.06211717      -0.15652217       0.16008358
C       46.37300000     187.97100000      74.17700000  F       2.02329968      -0.49765729       0.56195429
O       46.25200000     187.68900000      75.35200000  F       0.02030026       0.45026333       0.15423682
C       47.94400000     189.77600000      73.45900000  F       0.22482670       0.33963876       0.03887162
N       41.67600000     177.26100000      64.19100000  F       1.35261237       1.43659845      -0.57104110
C       42.83500000     178.06900000      63.66600000  F      -1.22162665      -1.33984418      -0.31521028
C       42.79500000     178.05500000      62.14600000  F      -3.28251441      -3.04705104       0.33333591
O       41.98100000     177.33200000      61.51700000  F       1.31187477       1.63654300       1.38549578
N       43.70000000     178.80000000      61.55400000  F       2.95602707       1.72313118      -0.61954226
C       43.77700000     178.96000000      60.13300000  F      -1.15905603      -0.53085708      -0.54784861
C       44.07100000     177.67100000      59.40100000  F      -1.45269843       0.50309575      -1.66534525
O       43.68700000     177.52300000      58.23400000  F       0.61450733       0.25512038       1.29858684
C       44.80300000     179.97300000      59.82800000  F       1.65647541      -0.02976638      -0.26027814
O       46.08600000     179.49100000      60.29100000  F      -0.79174898       1.00954251       0.18246670
N       44.71300000     176.72000000      60.08000000  F       0.56557940      -1.37358884       0.86086491
C       44.95800000     175.39500000      59.51400000  F       0.27669812      -0.03159636      -0.48245740
C       43.97000000     174.30600000      59.82900000  F       0.64043029      -0.93340549      -1.27995438
O       44.14200000     173.16500000      59.37800000  F      -0.11387907       1.30707430       0.82210889
N       49.08300000     175.18400000      55.16800000  F       0.16922166      -0.31382313       1.64690799
C       48.77300000     176.46600000      55.76000000  F       0.13389371       0.17032994       0.28731029
C       50.03300000     177.26300000      56.05900000  F      -0.75545574      -1.04606775       1.00335249
O       50.77800000     176.91400000      56.95100000  F       0.03803231      -0.19985037      -0.28368306
C       47.97300000     176.28200000      57.05300000  F      -0.31418976       0.81540493       0.24983522
C       47.64800000     177.61700000      57.74200000  F       0.23470588       1.04499776       0.94028249
O       47.64400000     178.66700000      57.04600000  F      -0.09330550      -1.45401271       0.75538022
O       47.47400000     177.60000000      58.99700000  F       0.11848480      -0.30624057      -2.60156745
N       50.18500000     178.39700000      55.37800000  F       0.57298955       1.41071489      -0.77483325
C       51.34500000     179.27200000      55.58400000  F       0.23421764       0.28548849       0.67274821
C       51.47100000     179.75500000      57.04700000  F       3.07947860      -0.37522118      -0.66029325
O       52.59100000     180.04300000      57.53400000  F      -2.40908571      -0.23242358      -1.12525795
C       51.30300000     180.47000000      54.66000000  F       0.05070538      -0.00707317      -0.04839130
N       50.33800000     179.82100000      57.73300000  F      -1.16059063       0.18997216       1.12733125
C       50.34100000     180.33300000      59.08900000  F      -0.74908415       0.42726227       0.66953258
C       50.44500000     179.24900000      60.14900000  F      -0.48694765       2.08784920       1.86343066
O       50.31300000     179.56900000      61.34700000  F       0.12512232      -0.73158256      -1.97505559
C       49.12600000     181.31500000      59.32700000  F       0.90492554      -1.66102058       0.40279278
C       49.21100000     182.37300000      58.33900000  F      -1.47681897      -0.27396322      -0.76958200
C       48.53100000     182.29000000      57.13500000  F       0.00983485       0.43977631      -0.90251191
C       49.95400000     183.46800000      58.56100000  F       1.47759581       1.49784943       0.36631569
C       48.65500000     183.29900000      56.16700000  F      -1.20632347      -2.30901053       0.57238203
C       50.14300000     184.42600000      57.58500000  F       0.25589262      -0.03501220       1.44863009
C       49.46900000     184.34700000      56.40300000  F       0.64139431       0.93427480      -0.52640226
O       49.67000000     185.32700000      55.48700000  F       0.04963598       0.72908918      -0.71382700
N       50.74300000     178.00900000      59.76100000  F       0.07629794      -1.32205244      -0.34505346
C       51.02000000     176.97300000      60.72600000  F       0.47297028      -0.64666688      -0.23518803
C       52.40300000     176.36000000      60.41500000  F       0.26922800       0.23258594      -4.70643444
O       52.83300000     176.22500000      59.18500000  F      -1.62901297       0.43871663       4.81186450
C       49.91600000     175.89400000      60.78300000  F      -0.46078230       0.52655259      -0.04493463
O       48.59300000     176.43000000      61.02500000  F       1.06829381      -0.27273901       0.06884763
N       58.01900000     190.54800000      73.59500000  F      -1.15277314       2.86986499      -0.75070544
C       56.60800000     190.95700000      73.70700000  F       0.35595576       0.27164138       0.52017637
C       56.06900000     191.48400000      72.40000000  F       0.98904304      -0.42347416       0.96360303
O       56.75700000     192.12400000      71.66200000  F       1.07614983       0.78010225      -0.75527313
C       56.46100000     192.09100000      74.76800000  F      -0.21320958      -0.24017147      -0.87703571
C       56.86500000     191.70400000      76.13100000  F       0.27707599      -0.01409963      -0.13735711
C       58.19500000     191.58900000      76.45600000  F       0.49565220       0.05233232      -0.29098077
C       55.92500000     191.41800000      77.08200000  F      -0.99509928       0.04064470       0.09074234
C       58.58700000     191.17200000      77.69800000  F      -0.93379638      -0.37469065       1.09711360
C       56.26300000     191.02800000      78.34700000  F       0.29031028      -0.24391067       0.20641437
C       57.59400000     190.87200000      78.65400000  F       0.99273303       0.28571451      -0.46099445
N       54.78400000     191.26700000      72.14300000  F      -2.23057186      -0.60791755       0.21544520
C       54.06500000     192.08500000      71.20700000  F      -0.48754797       0.71814289       0.05120243
C       53.39300000     193.30200000      71.92900000  F       1.58126949      -1.84008792       0.42008115
O       53.42100000     193.43500000      73.14300000  F       0.22883090      -0.51928781      -0.43288514
C       53.11400000     191.21700000      70.35300000  F      -0.35101329       0.26210014       0.40570346
C       51.76300000     190.96700000      70.99500000  F      -1.67039202      -0.71391835      -0.01270699
O       51.42500000     191.44700000      72.08100000  F       0.84477679       0.38004576      -0.03649929
O       50.94700000     190.26100000      70.36900000  F       2.09388610       0.65676412      -0.11904689
N       52.85200000     194.26100000      71.16400000  F      -0.98999806       0.69342557       0.32958364
C       52.41200000     195.50300000      71.82400000  F      -0.99936774       0.39405066       0.18243715
C       51.27800000     195.35200000      72.84000000  F       1.93875909       1.80133042       0.22341541
O       51.11000000     196.21600000      73.68500000  F      -0.04527713      -0.01320871      -0.37714692
C       51.90800000     196.33900000      70.63800000  F      -0.06861613       1.16995189       0.85618975
C       52.79800000     195.92400000      69.51600000  F      -0.00145440      -0.13412367      -1.45959148
C       52.91000000     194.41600000      69.70300000  F       0.56504786      -0.37701887      -0.37844452
N       44.18000000     170.99300000      67.55100000  F      -0.49033719      -2.46512350       1.26129089
C       43.11900000     169.96000000      67.53700000  F       0.52112586       0.51774235      -0.07302325
C       49.04800000     172.11100000      68.30100000  F       1.19217672      -0.19695621      -0.30980555
C       50.41400000     172.27400000      67.61400000  F       0.98992867      -2.63085501       1.86933731
O       51.40800000     171.53300000      67.90800000  F      -2.70407636       2.12395367      -0.78745927
N       51.47700000     189.61000000      60.46800000  F      -2.17204665      -0.26777485      -0.99818423
C       51.28700000     189.63400000      59.01600000  F       0.24895239       0.10310997       0.38317703
C       58.36100000     178.06100000      69.54600000  F      -0.62788160       0.36572010       0.43438406
C       57.29000000     178.48500000      70.54800000  F       1.30525436      -1.23148290      -1.37873842
O       57.54400000     178.47200000      71.71200000  F       0.68743506       0.26989853       1.84595730
N       48.37100000     174.86500000      80.53200000  F       2.03240899      -0.14267043       1.97976100
C       48.08100000     173.98100000      81.60400000  F      -0.26725475      -0.39347778       0.35899972
C       44.34400000     175.54900000      73.60400000  F      -0.24775877       0.85217274      -0.00968726
C       44.10400000     176.97400000      73.11200000  F      -2.08128910      -1.27495072       0.94593787
O       43.04800000     177.55200000      73.33400000  F       0.54175775      -0.27500829       0.10783726
N       45.34300000     187.98800000      73.32800000  F      -0.96875902       0.28248655      -1.09557102
C       44.01100000     187.70000000      73.78800000  F      -0.02796731      -0.20297547      -0.01827204
C       40.64600000     175.44500000      65.43000000  F       0.84904550       0.01477468      -0.20991153
C       41.89000000     176.12400000      64.89200000  F       1.98004064      -1.97474104       1.32058691
O       43.04500000     175.65300000      65.14300000  F      -3.01301944       1.36303029      -0.63127132
N       42.87500000     174.66500000      60.52700000  F      -0.52987541       0.35529459       0.67386575
C       41.90000000     173.71000000      60.95700000  F      -0.08486708      -0.20428219      -0.00386557
C       49.29000000     173.47900000      53.40900000  F       0.05436013       1.19528902       0.31638537
C       49.14800000     174.95100000      53.85500000  F      -0.07756061      -1.92870363      -1.11891475
O       49.04600000     175.81700000      53.03200000  F      -0.04904304       0.79577459      -0.71720211
N       53.10200000     176.00200000      61.50000000  F       1.53117934      -0.73399668       0.59946569
C       54.47400000     175.41800000      61.39000000  F      -0.99782911       0.44097428       0.02735708
C       60.05000000     189.24300000      73.95900000  F      -1.63181902      -0.05535249       0.07368175
C       58.49000000     189.38000000      73.95400000  F       2.99899341      -1.77287816      -0.01914380
O       57.80600000     188.43100000      74.22400000  F      -0.53219566      -0.64458989       0.56648283
N       50.51300000     194.28900000      72.73400000  F      -1.86229515      -2.03838808       0.20606646
C       49.41200000     194.11700000      73.68000000  F       0.33064937      -0.09638248      -0.24950572
O       44.57000000     181.16200000      63.51200000  F      -0.32343762      -0.12164856      -0.34699852
O       48.60300000     189.36900000      69.98000000  F      -1.09399711      -0.22559175       0.14701844
O       50.73300000     181.88100000      62.89200000  F       0.15445556       0.00963994       0.11012184
N       49.54300000     186.95500000      65.83900000  F       1.18936234      -1.68433489      -2.09890899
C       53.00100000     189.76900000      66.93800000  F      -0.23860518      -1.64668387       0.07783125
C       50.61700000     188.90900000      66.87800000  F       1.52342212      -2.06316427      -0.03352974
C       51.17400000     191.17200000      66.78900000  F      -2.37649938       1.59685834       0.28867101
C       52.52800000     191.00800000      66.84900000  F       0.37343850       1.50242947      -0.17215792
O       50.39900000     184.24800000      65.60200000  F      -1.55348432       0.34453295       0.29755085
C       49.21100000     184.48700000      65.88300000  F       3.58236016       1.16510526      -1.40914399
N       48.40000000     183.55500000      66.32900000  F      -1.88380576      -1.56889099       0.65632660
C       48.71100000     182.15800000      66.51800000  F      -0.25665127      -0.10685334       0.17727557
B       47.86200000     181.26700000      65.38200000  F      -1.31467811       0.03860975      -1.21688466
O       48.09300000     181.50400000      63.85900000  F       0.37417227       0.85387973       1.26192498
O       46.36200000     181.60000000      65.51900000  F       1.22694016      -0.00415209       0.58863060
C       48.29600000     181.75500000      67.95500000  F      -0.31189930      -0.78878161      -0.98805588
C       48.94900000     182.52600000      69.07200000  F       0.65519782       0.55761242       0.04640111
C       50.44600000     182.57900000      68.87100000  F       0.53720190       0.30956500      -0.31710057
C       48.71900000     181.94600000      70.44400000  F      -0.65112098      -0.29673153       0.40707788
C       48.63200000     185.85900000      65.65200000  F      -0.68171897      -0.10543935       0.45784112
C       49.57600000     187.79600000      66.85700000  F       1.54869733       2.40115377      -0.05926327
O       48.72800000     187.85600000      67.68300000  F      -1.98285171      -0.56615851       1.92232599
C       52.02900000     188.76800000      66.95100000  F      -0.49081336      -1.88267412       0.01375017
Cl      52.47400000     187.12900000      67.11200000  F       0.66329284      -0.38011443       0.05896058
Cl      50.42800000     192.79300000      66.85900000  F       0.70273080      -0.21261119      -0.05816082
C       50.21800000     190.16200000      66.82700000  F      -0.34959916       2.54268243      -0.27495839
H       48.27334347     178.74301041      61.92737471  T      -0.00802836      -0.01392196       0.00295474
H       48.47287774     179.91526746      63.04922893  T       0.01807502      -0.00777166      -0.00559916
H       48.74284020     177.82669210      64.11053705  T       0.00072370      -0.00119376       0.00359328
H       46.23166044     179.45568044      64.68812835  T      -0.00075359       0.00251678      -0.00053869
H       47.61042258     177.35109828      66.45957391  T       0.00485443      -0.00066149       0.00223790
H       45.93006988     177.31640717      65.94500205  T      -0.00199476      -0.00462354      -0.00265747
H       46.49123017     178.54791649      67.08845540  T      -0.00316893       0.00311705       0.00245242
H       48.12759088     175.73989080      64.52762564  T      -0.00192713       0.00079283      -0.00119744
H       45.43864261     175.01154596      63.65816358  T      -0.00192903       0.00049955       0.00097862
H       47.81953114     173.18306961      63.03418756  T       0.00161187      -0.00201468      -0.00139195
H       46.61209031     175.21269398      61.64435292  T      -0.00772606      -0.00806416      -0.00631654
H       44.80292982     173.06596928      62.35784012  T      -0.00078016       0.00075945      -0.00055383
H       45.57972328     172.05384255      63.57445802  T      -0.00037751      -0.00043595       0.00114599
H       45.98321498     171.86656558      61.85951194  T       0.00045024      -0.00055689      -0.00101362
H       44.42061768     174.31138832      65.47499583  T       0.00097084      -0.00059500       0.00129120
H       46.06203332     172.67262572      67.31989988  T       0.00146402      -0.00132432       0.00005481
H       44.52341936     173.42457404      69.18294018  T      -0.00047953      -0.00124032       0.00148797
H       43.39968255     174.96187000      67.06801075  T       0.00010919       0.00222926       0.00048156
H       45.89791287     175.67613715      67.64057696  T      -0.00041165       0.00164502      -0.00093886
H       46.68043304     174.65737113      68.84012651  T       0.00184401      -0.00097855      -0.00056747
H       45.40617408     175.78735950      69.32337494  T      -0.00031755       0.00034616       0.00207764
H       49.54228790     173.71145364      66.39552503  T       0.00100003      -0.00023088       0.00059647
H       52.33319638     172.86087232      66.09935548  T       0.00131967      -0.00151278      -0.00008742
H       52.39137360     174.22737482      64.12351269  T       0.00128318      -0.00039352      -0.00087872
H       50.77350741     173.54513701      64.13249111  T      -0.00030494      -0.00126470      -0.00126862
H       53.81689421     175.15312199      65.76097034  T       0.00256832      -0.00109412       0.00249496
H       53.27573011     176.63639662      68.23512759  T      -0.00078015       0.00078076       0.00189356
H       55.61344528     176.24560101      68.82399873  T       0.00079680       0.00064103       0.00185005
H       54.80651131     174.70690457      68.48316820  T       0.00009701      -0.00178590       0.00115530
H       56.43558880     176.14652249      66.66558333  T       0.00073915       0.00009647       0.00034869
H       52.97369255     177.50478084      65.27675817  T      -0.00047554      -0.00078852      -0.00159313
H       55.19346828     179.44562042      65.11881571  T       0.00171543       0.00040574       0.00031761
H       54.54032658     178.22244055      63.07438776  T      -0.00004698      -0.00202033      -0.00063624
H       52.86007885     178.62405437      63.31704616  T      -0.00121145      -0.00209066      -0.00040779
H       53.17701123     180.95500012      62.76018862  T      -0.00064074       0.00202853       0.00070465
H       54.92342733     180.84319063      62.85872668  T       0.00097168       0.00163657       0.00063019
H       53.24191834     179.33948791      60.80919508  T      -0.00158289      -0.00044824      -0.00138045
H       54.10271449     180.83653297      60.48006019  T      -0.00092485       0.00123529      -0.00158675
H       55.12898491     178.64929293      57.60784146  T      -0.00069034       0.00088461       0.00010633
H       53.96942468     179.42496454      58.49514096  T       0.00136999       0.00075872       0.00045953
H       57.10789730     177.79128510      58.46171891  T       0.00050930       0.00073839       0.00068309
H       57.45331154     177.89082361      60.10335891  T       0.00032346       0.00055133      -0.00114284
H       54.92504221     181.65787376      65.28448319  T      -0.00186585       0.00079370      -0.00484694
H       52.17997631     182.66609633      65.45282867  T      -0.00163481      -0.00152776      -0.00258671
H       54.68696074     183.70442074      66.90028755  T       0.00165639       0.00053475      -0.00097796
H       53.23894664     183.05088091      67.67446635  T       0.00048251      -0.00179086       0.00035639
H       53.15912900     184.58444225      66.81288884  T      -0.00152400       0.00147316       0.00086059
H       51.84725449     184.61062636      64.35753005  T      -0.00086059       0.00621168      -0.00469269
H       54.04764363     185.52747513      62.67797534  T       0.00207490      -0.00005480       0.00079900
H       52.32684178     185.69485420      60.70644146  T       0.01202182      -0.00206679      -0.00425652
H       50.59652801     185.10662277      62.28543213  T      -0.02520846       0.03200586       0.00251527
H       53.10864657     182.91191302      61.75000338  T      -0.00010092      -0.00140736       0.00030165
H       54.17164310     183.92371743      60.77860536  T       0.00195344      -0.00001510       0.00055449
H       52.68686133     183.26436255      60.07869424  T       0.00051898      -0.00039483      -0.00180191
H       53.96737385     187.62835968      61.94539324  T      -0.00044594       0.00081542       0.00110205
H       51.78566557     189.35430251      63.00594927  T      -0.00250416       0.00269824      -0.00125143
H       54.78444691     189.96370583      62.63491841  T       0.00111049      -0.00037628      -0.00063284
H       53.99538895     189.77858267      64.20324752  T      -0.00041685      -0.00029642       0.00145589
H       53.58682989     191.14628656      63.15503232  T      -0.00044958       0.00133996      -0.00072485
H       55.79295203     178.63408120      69.12217915  T      -0.00011806       0.00136015       0.00148160
H       55.45189028     179.83386107      71.76698329  T       0.00045740       0.00181047       0.00071475
H       53.45651026     179.19818038      69.51270446  T      -0.00083387      -0.00145653      -0.00141472
H       53.21102709     181.07634476      71.92001976  T       0.00010501       0.00090356       0.00092241
H       52.38806611     179.53331092      71.75000100  T      -0.00068638      -0.00101459       0.00062975
H       51.98690502     180.86814529      70.67492657  T      -0.00086990       0.00030504      -0.00064441
H       54.89349255     181.81630995      70.18887450  T       0.00077998       0.00079722       0.00066425
H       53.62556861     181.63882224      68.98013913  T      -0.00004378       0.00035103      -0.00122978
H       55.17366210     180.82516478      68.75997007  T       0.00133056      -0.00091482      -0.00031511
H       54.24891698     178.83226348      73.46071347  T      -0.00287484      -0.00042133      -0.00044401
H       53.53473743     175.99775761      73.00953817  T       0.00032967      -0.00148204      -0.00110664
H       53.10056567     176.00313792      75.48485824  T      -0.00184506      -0.00011018       0.00164482
H       53.55685860     177.68549406      75.54627702  T      -0.00122013       0.00112525       0.00149252
H       55.87174896     177.10198570      74.75619654  T       0.00137261       0.00154556       0.00008670
H       55.46740714     176.29341699      76.25133222  T       0.00158783       0.00144722       0.00168929
H       54.68175301     174.29333225      74.75662445  T      -0.00156584      -0.00108609      -0.00016504
H       55.52112834     175.06366895      73.44173158  T      -0.00156406      -0.00123015      -0.00221407
H       57.11229585     174.67458112      76.00302547  T       0.00066068       0.00025292       0.00168868
H       56.74136013     173.22603683      75.08707286  T       0.00008949      -0.00175693       0.00198007
H       57.94860792     175.66444343      73.85117246  T      -0.00281130      -0.00287363      -0.00722410
H       57.69723644     174.20896106      73.10081163  T      -0.00331679       0.00879987      -0.00749392
H       51.53981724     175.91545694      72.02942623  T      -0.00111902       0.00042561       0.00078726
H       49.56613243     177.94312357      72.74592622  T      -0.00020018       0.00185174       0.00038298
H       49.48404985     175.73303724      70.64482247  T      -0.00123081      -0.00202936      -0.00044844
H       48.30403404     177.00335691      70.81651819  T      -0.00235797      -0.00129401      -0.00064588
H       50.16522143     178.67875390      70.46687015  T       0.00147214       0.00191752       0.00065529
H       51.23644357     177.35120353      70.12930485  T       0.00262836       0.00108781       0.00054581
H       49.73534672     176.64230839      68.24210539  T      -0.00105005      -0.00202149      -0.00010686
H       48.68421163     177.99863497      68.57717114  T      -0.00215401      -0.00048751      -0.00102372
H       50.57347757     179.58432966      68.14063280  T       0.00295274       0.00220124      -0.00137824
H       51.66611766     178.24588081      67.93640107  T       0.00178769       0.00005426       0.00103022
H       49.41547584     178.94909140      66.12910306  T      -0.00136422      -0.00845197      -0.01044015
H       50.25014912     177.51958411      65.97951632  T      -0.00271027      -0.00362835       0.01224057
H       50.33051264     175.09821459      74.16443442  T      -0.00211602      -0.00012621      -0.00019943
H       47.51559042     174.51587022      74.81842655  T      -0.00172008       0.00031724      -0.00047802
H       49.93155934     172.70606123      75.15791859  T       0.00209431      -0.00024463       0.00043107
H       46.94700580     172.27877222      75.74217327  T      -0.00125477       0.00003759      -0.00006840
H       48.20270542     172.45800463      76.95841552  T       0.00031224       0.00028091       0.00130147
H       48.19042850     171.04332831      75.90497179  T       0.00036148      -0.00127148      -0.00011127
H       47.48549889     172.51186513      73.29848722  T      -0.00113735       0.00026116      -0.00038546
H       48.74429426     171.28665680      73.43429211  T       0.00027272      -0.00126634       0.00013709
H       49.12244934     172.88173652      72.77910930  T       0.00085624       0.00058334      -0.00078742
H       46.91261915     175.36012905      76.76685539  T       0.00045324      -0.00094173       0.00198061
H       49.14172372     176.20224211      78.57391025  T       0.00152865       0.00085576       0.00037892
H       46.21733260     177.06860761      78.18870259  T      -0.00194029      -0.00035391      -0.00099315
H       48.73819583     178.79461586      78.23760350  T       0.00193696       0.00062081       0.00069156
H       48.41255062     177.79955897      76.83558147  T       0.00185628      -0.00068403      -0.00116710
H       48.17040388     178.06376357      80.35642708  T       0.00120582       0.00090742       0.00024874
H       46.69525775     177.16102385      80.66012452  T      -0.00032591      -0.00084726       0.00117632
H       46.60566015     178.79709513      80.01528594  T      -0.00118022       0.00085509       0.00000404
H       46.34047798     179.69530103      78.02038603  T      -0.00080369       0.00230528       0.00126384
H       46.19232781     178.78793796      76.52886163  T      -0.00243441      -0.00115911      -0.00036993
H       47.37731371     180.09958353      76.67755229  T       0.00016833       0.00125837      -0.00224457
H       46.00388578     177.07481403      72.41854206  T       0.00093491       0.00346327       0.00175820
H       44.15579338     179.35689596      72.21309932  T      -0.00166086       0.00045342       0.00056594
H       46.30025853     180.67526791      72.09906827  T       0.00074998       0.00141037      -0.00131149
H       47.24226903     179.20619371      72.01302125  T       0.00161083       0.00076867      -0.00197564
H       46.73423531     178.63175305      74.28695768  T      -0.00014344      -0.00152668       0.00143314
H       45.38320719     179.73748973      74.34649372  T      -0.00136648      -0.00185198       0.00221043
H       49.78069145     181.16474743      74.64576635  T       0.00078486       0.00058502       0.00026997
H       49.17122357     180.46353551      73.14684772  T       0.00011561      -0.00012596      -0.00095036
H       49.35985020     179.45269683      74.58391241  T       0.00034112      -0.00091900       0.00042483
H       43.58929809     180.23475560      70.28806336  T       0.00014621      -0.00009636      -0.00219169
H       45.43586601     180.15926210      68.08162888  T       0.00172123       0.00086229      -0.00022249
H       42.57289784     179.07176837      67.86497441  T      -0.00127016      -0.00043433       0.00068233
H       44.01702899     178.08175209      67.70394088  T       0.00115376      -0.00118386      -0.00014367
H       43.65364763     179.32354178      66.49354005  T      -0.00004264       0.00105646      -0.00133397
H       45.02941685     182.11431952      66.81224477  T      -0.00133769       0.00093528       0.00070062
H       42.78495590     183.82665596      67.76516895  T      -0.00135066       0.00002973       0.00087037
H       43.40775319     183.82385297      66.10409155  T      -0.00037437       0.00033117      -0.00145931
H       43.41339799     185.68314713      68.70910946  T       0.00151231      -0.00079898       0.00114367
H       44.65770489     187.53574883      69.15350758  T      -0.00055251       0.00155652       0.00027994
H       45.88102724     186.98323991      68.00424346  T       0.00089921       0.00045889      -0.00127657
H       47.80507546     186.71374391      69.06903691  T       0.00017075      -0.00035995       0.00121484
H       48.00206877     184.59562275      70.97055888  T      -0.00013089      -0.00175701       0.00015546
H       49.97652127     186.93321682      70.43019414  T      -0.00006521       0.00126656      -0.00044186
H       49.94528651     185.46108236      69.47791927  T       0.00004417      -0.00068972      -0.00108098
H       50.41787607     185.40363304      71.18483632  T       0.00063933      -0.00018577       0.00124338
H       48.14108270     188.22322279      71.48588010  T       0.00004612      -0.00086185       0.00122916
H       48.52928733     187.87180523      74.30328910  T       0.00126492      -0.00084087       0.00107962
H       47.20100001     190.16570942      72.76360739  T      -0.00077675       0.00060885      -0.00069996
H       48.92812566     190.03251353      73.06294654  T       0.00130749       0.00027251      -0.00042748
H       47.81092623     190.28545396      74.41374792  T      -0.00017607       0.00023370       0.00135829
H       40.75446168     177.51231413      63.82872185  T      -0.00091124       0.00152340      -0.00083485
H       42.80894974     179.08546344      64.06303857  T      -0.00022901       0.00080881       0.00171497
H       43.75490099     177.57658212      63.99790138  T       0.00109295      -0.00163206      -0.00001572
H       44.68640915     178.74538401      61.89980387  T      -0.01035577       0.01705173       0.00902023
H       42.78256727     179.29934992      59.80077264  T      -0.00182608       0.00034613      -0.00073220
H       44.59993770     180.92063841      60.33809370  T      -0.00215847      -0.00225690       0.00725594
H       44.87084879     180.17055208      58.75054872  T      -0.00467207       0.01126988       0.00065561
H       46.46066058     178.74463526      59.77692204  T       0.02401492       0.00083581       0.01152569
H       45.05528318     176.88563973      61.04485767  T       0.01661565       0.01165963      -0.00908552
H       44.95591521     175.53018921      58.42765640  T      -0.00601472       0.00187375      -0.00225757
H       45.96715977     175.06051401      59.76755166  T       0.00387425       0.00004425      -0.01056862
H       49.25330895     174.43553546      55.84193162  T      -0.00064913       0.00111971      -0.00035376
H       48.16586817     177.02387927      55.03188524  T      -0.00102201       0.00090714      -0.00120592
H       48.55644348     175.67932745      57.75097121  T       0.00054052      -0.00078329       0.00105560
H       47.04674257     175.73865231      56.85538697  T      -0.00107082      -0.00168222       0.00056251
H       49.53373226     178.66460404      54.63767325  T       0.00114219      -0.00003442       0.00027727
H       52.23329678     178.65512292      55.37794904  T       0.00155161      -0.00104334      -0.00026400
H       50.41910284     181.07236064      54.86628982  T      -0.00082657       0.00083828       0.00041571
H       51.26395973     180.16378530      53.61468181  T      -0.00025356      -0.00070194      -0.00113512
H       52.17748359     181.10559180      54.80160407  T       0.00132126       0.00045367       0.00008853
H       49.44790902     179.41076487      57.39423684  T      -0.00286673       0.00151201       0.00044423
H       51.26295087     180.92773326      59.17270154  T       0.00146490       0.00110468       0.00010399
H       48.18861184     180.75592426      59.23410872  T      -0.00151442      -0.00016307       0.00056572
H       49.15729083     181.70927747      60.34804453  T      -0.00031381      -0.00025893       0.00148846
H       47.93450466     181.41543478      56.93351857  T       0.00104471      -0.00052405      -0.00047479
H       50.43634600     183.58821431      59.51898406  T      -0.00033999       0.00038158       0.00008095
H       48.12602373     183.22501658      55.23351848  T       0.00085537      -0.00118889      -0.00003848
H       50.77941560     185.27607961      57.76041608  T      -0.00031598      -0.00008641       0.00010530
H       49.12711246     185.16178960      54.68548215  T      -0.00062332       0.00024574      -0.00057023
H       50.81917349     177.73358897      58.76086638  T       0.00161483      -0.00346635      -0.00128301
H       51.05821634     177.47254514      61.70837884  T       0.00132133       0.00071705       0.00169452
H       50.15257337     175.12716372      61.53061736  T      -0.00248322      -0.00244003       0.00195360
H       49.86740218     175.39287381      59.81012346  T      -0.00108603       0.00035668      -0.00228680
H       48.23355430     176.19237130      61.92056337  T       0.01343878       0.00846797      -0.01548911
H       58.63310472     191.29366583      73.26381666  T      -0.00136901      -0.00033360       0.00027946
H       56.04255118     190.06488121      74.01048985  T      -0.00076398      -0.00179777      -0.00010183
H       55.42383278     192.44560649      74.76899030  T      -0.00136467       0.00175589      -0.00078857
H       57.05856400     192.94559919      74.43701726  T      -0.00027333       0.00212943      -0.00100897
H       58.93539454     191.81055537      75.70638334  T      -0.00011057      -0.00038067       0.00027748
H       54.88320217     191.50671285      76.81920433  T       0.00008847      -0.00063554       0.00020207
H       59.63008939     191.06436994      77.94169485  T      -0.00040928      -0.00010803      -0.00021750
H       55.50157442     190.80932673      79.07749656  T       0.00018937      -0.00010812      -0.00029498
H       57.88445829     190.53899065      79.63630453  T      -0.00013318       0.00018480      -0.00031406
H       54.16916291     190.87792976      72.86026107  T      -0.00158820       0.00807440       0.00330113
H       54.84987673     192.49993285      70.55443982  T       0.00099715       0.00082159      -0.00158199
H       52.93238346     191.68392643      69.38278169  T       0.00022264       0.00061396      -0.00145581
H       53.58665155     190.25441152      70.14386552  T       0.00083497      -0.00115923      -0.00203173
H       53.27958250     195.95865547      72.32027864  T       0.00286753      -0.00277814       0.00205109
H       50.85763476     196.10136590      70.43283491  T      -0.00154518      -0.00134270      -0.00021592
H       51.96291088     197.41435118      70.85392713  T      -0.00005330       0.00163733       0.00156469
H       52.37766381     196.18057257      68.53354827  T      -0.00172910       0.00070749      -0.00135716
H       53.78127230     196.40557158      69.58610401  T       0.00142578       0.00134886       0.00015913
H       53.84562296     194.01238624      69.30481677  T       0.00183293       0.00049283      -0.00082252
H       52.07118337     193.87725367      69.24861882  T      -0.00167020       0.00027542      -0.00153785
H       44.91702531     170.88549202      68.25462880  T      -0.00204636       0.00015214      -0.00008218
H       42.33254138     170.27032889      66.85017660  T       0.00103709      -0.00130617      -0.00331655
H       42.68382116     169.83638057      68.52809040  T      -0.00271105       0.00262379       0.00031610
H       43.51852216     169.00512676      67.19776751  T       0.00123590      -0.00169354       0.00314733
H       48.31988634     172.80576322      67.88506500  T      -0.00127367      -0.00104240      -0.00230254
H       49.14393600     172.30343253      69.36776102  T      -0.00034882       0.00277361       0.00060044
H       48.67765945     171.09741953      68.16221615  T       0.00082110      -0.00169319       0.00192775
H       50.64923549     189.35051690      61.01119101  T       0.00087970       0.00125238      -0.00087636
H       52.26105268     189.72464658      58.53680984  T      -0.00003263       0.00654868      -0.00005500
H       50.67743107     190.48850232      58.72618093  T      -0.00585073      -0.00342394       0.00062716
H       50.81268530     188.71707309      58.66834341  T       0.00557555      -0.00351668      -0.00046640
H       58.00937181     178.18689109      68.52322499  T       0.00074819       0.00337409      -0.00080108
H       58.62208881     177.01512245      69.69548512  T      -0.00237127      -0.00177952      -0.00199373
H       59.25923695     178.66066883      69.67916279  T       0.00185252      -0.00163386       0.00243058
H       49.27181521     175.35411358      80.57649125  T      -0.00125816      -0.00101830      -0.00022439
H       47.13311387     173.47871624      81.40845648  T      -0.00221315       0.00106496       0.00130753
H       47.99208218     174.52568864      82.54454449  T       0.00272828       0.00057584       0.00128078
H       48.85627162     173.22041950      81.70329030  T      -0.00000925      -0.00196787      -0.00163305
H       45.36691809     175.23367212      73.40380698  T       0.00212284       0.00148657       0.00453906
H       43.66308596     174.86078196      73.10739950  T       0.00295889      -0.00085052      -0.00418903
H       44.17070073     175.49015676      74.67666939  T      -0.00508806      -0.00084491      -0.00026928
H       45.51934361     187.88627332      72.32180994  T       0.00039092      -0.00443011      -0.00559773
H       44.03023106     187.56576109      74.86934322  T      -0.00114988       0.00562806       0.00131712
H       43.64610614     186.77756551      73.33504769  T       0.00217968      -0.00350235       0.00346655
H       43.33304378     188.51721947      73.54530077  T      -0.00107950      -0.00178535      -0.00558778
H       39.73814377     175.91252723      65.05393179  T      -0.00024257      -0.00317297      -0.00544220
H       40.63822723     175.48986522      66.51780358  T      -0.00335046       0.00540654       0.00033467
H       40.64700473     174.39524234      65.14069266  T       0.00293881      -0.00216574       0.00466177
H       42.71776589     175.64646808      60.82978226  T      -0.00189809       0.00058309       0.00358212
H       42.17638825     172.72585646      60.57914323  T      -0.00156635      -0.00053771      -0.00269656
H       40.91491951     173.96975410      60.57067549  T      -0.00119562       0.00250583       0.00192842
H       41.86319742     173.66890375      62.04586498  T       0.00194712      -0.00159651       0.00118632
H       49.36178284     173.42966101      52.32455468  T       0.00188595       0.00025186      -0.00092501
H       48.42530119     172.89851290      53.72420502  T      -0.00177151      -0.00006495      -0.00128300
H       50.18630478     173.03317233      53.83554772  T      -0.00012875      -0.00095088       0.00190451
H       52.68282892     176.12945218      62.43355287  T       0.00049100      -0.00018950      -0.00126853
H       54.75477092     175.39513940      60.33805117  T       0.00119739       0.00211049      -0.00083567
H       54.48891493     174.40334036      61.78256408  T      -0.00053609      -0.00175169      -0.00167644
H       55.19397557     176.02843144      61.93095730  T       0.00023268      -0.00069852       0.00238414
H       60.53315190     190.18950850      73.72802416  T       0.00041415       0.00135525       0.00185284
H       60.35618204     188.50638836      73.21979533  T       0.00036824       0.00088466      -0.00214877
H       60.38928994     188.90662875      74.93588703  T       0.00003638      -0.00228154       0.00028729
H       50.88846760     193.40389898      72.33723451  T       0.00104648      -0.00817139      -0.00818494
H       49.33923847     195.00637556      74.30584941  T      -0.00405669       0.00110891      -0.00257177
H       49.58858700     193.25262001      74.32036987  T       0.00738023       0.00262460       0.00329196
H       48.47391406     193.98337590      73.14280907  T      -0.00090213      -0.00935826       0.00115402
H       50.29994671     186.96655958      65.14441223  T      -0.00347791      -0.00176308      -0.00129305
H       54.05069998     189.53409966      67.00068527  T      -0.00009077      -0.00003858       0.00010267
H       53.17925033     191.86732440      66.82828139  T       0.00010478      -0.00007917       0.00018710
H       47.44213148     183.79552419      66.60004968  T       0.00047328      -0.00406071       0.00001258
H       49.76854922     181.97783546      66.31041250  T       0.00089867      -0.00192436      -0.00051368
H       48.49761688     180.68689521      68.08420235  T      -0.00171610      -0.00212969       0.00023823
H       47.20780939     181.85074313      68.03315434  T      -0.00226791      -0.00201982       0.00020495
H       48.55192422     183.55708726      69.03558186  T      -0.00069081       0.00226928      -0.00003988
H       50.86966760     181.57872903      68.80196153  T       0.00086827      -0.00198960      -0.00002353
H       50.94639865     183.09210508      69.69389652  T       0.00168904       0.00178151       0.00118070
H       50.70482238     183.10904017      67.95290442  T       0.00023558       0.00091001      -0.00223643
H       49.08758612     180.92132263      70.49882183  T       0.00153255      -0.00142774       0.00076285
H       47.65507780     181.92342132      70.68402424  T      -0.00182612      -0.00080570       0.00049168
H       49.22442327     182.52012063      71.22226583  T       0.00042384       0.00168977       0.00122855
H       48.20946270     185.90931016      64.64379257  T      -0.00033762       0.00007019      -0.00169180
H       47.79723130     186.01407403      66.34415985  T      -0.00208007       0.00055809       0.00035913
H       49.16864190     190.40766224      66.80783128  T      -0.00007661      -0.00003505      -0.00028958
H       55.95687546     179.06777589      61.56580573  T       0.00016300       0.00111683      -0.00037176
H       58.83210712     174.32334650      74.31666250  T      -0.00156182       0.00820338       0.00529561
H       51.01919326     179.00559768      65.81612717  T      -0.00165816      -0.00208272      -0.00325699
H       47.44769034     182.20907080      63.66233285  T      -0.00814057       0.00396972       0.00005780
H       45.77576633     181.39816922      64.76804999  T       0.00137631       0.00243573      -0.00059585
H       44.35510866     180.43560061      62.89596721  T      -0.01252425       0.02253043      -0.01072710
H       44.20712818     181.96517800      63.10793174  T      -0.02169342      -0.01456830      -0.01279710
H       49.47492472     189.74168818      70.12369071  T      -0.00014255       0.00016529       0.00059485
H       48.66687860     188.87554128      69.14210108  T       0.00047617      -0.00278184       0.00165192
H       50.76415677     182.79400911      62.55595471  T       0.01613448      -0.00030976      -0.03106353
H       49.86422863     181.73751572      63.30263148  T       0.03112478       0.01737542      -0.02509510
