114
6V8_MS_A_THRN minimal catalytic core | Y1-3 + Asp17 sidechain + Lys33 sidechain + 6V8 | 2 link H
N       47.8600000000     179.1660000000      62.7530000000
C       47.7410000000     178.1840000000      63.8280000000
C       46.8980000000     177.0130000000      63.4580000000
O       45.9240000000     177.1660000000      62.7420000000
C       47.1150000000     178.9020000000      65.0300000000
O       48.0580000000     179.8330000000      65.5470000000
C       46.7580000000     177.9770000000      66.2020000000
N       47.2970000000     175.8220000000      63.9260000000
C       46.4540000000     174.6520000000      63.8740000000
C       46.4660000000     174.0090000000      65.2650000000
O       47.5120000000     173.7410000000      65.8250000000
C       46.8570000000     173.6460000000      62.7720000000
O       47.0330000000     174.3280000000      61.5220000000
C       45.7400000000     172.5880000000      62.6380000000
N       45.2710000000     173.8860000000      65.8630000000
C       45.1050000000     173.1610000000      67.0970000000
C       44.0570000000     172.1060000000      66.8600000000
O       43.1440000000     172.3300000000      66.0340000000
C       44.6860000000     174.0470000000      68.2880000000
O       43.4590000000     174.6870000000      68.0190000000
C       45.7260000000     175.0940000000      68.5440000000
C       51.4450000000     174.2190000000      64.6680000000
C       50.8510000000     175.6710000000      64.6200000000
O       49.8990000000     175.9010000000      65.3370000000
O       51.3680000000     176.5380000000      63.9280000000
C       49.3710000000     176.7800000000      70.9500000000
C       50.1810000000     177.6530000000      70.0750000000
C       49.7260000000     177.6630000000      68.6460000000
C       50.6220000000     178.5480000000      67.7920000000
N       50.3060000000     178.4840000000      66.3380000000
N       44.1800000000     170.9930000000      67.5510000000
C       43.1190000000     169.9600000000      67.5370000000
N       49.5430000000     186.9550000000      65.8390000000
C       53.0010000000     189.7690000000      66.9380000000
C       50.6170000000     188.9090000000      66.8780000000
C       51.1740000000     191.1720000000      66.7890000000
C       52.5280000000     191.0080000000      66.8490000000
O       50.3990000000     184.2480000000      65.6020000000
C       49.2110000000     184.4870000000      65.8830000000
N       48.4000000000     183.5550000000      66.3290000000
C       48.7110000000     182.1580000000      66.5180000000
B       47.8620000000     181.2670000000      65.3820000000
O       48.0930000000     181.5040000000      63.8590000000
O       46.3620000000     181.6000000000      65.5190000000
C       48.2960000000     181.7550000000      67.9550000000
C       48.9490000000     182.5260000000      69.0720000000
C       50.4460000000     182.5790000000      68.8710000000
C       48.7190000000     181.9460000000      70.4440000000
C       48.6320000000     185.8590000000      65.6520000000
C       49.5760000000     187.7960000000      66.8570000000
O       48.7280000000     187.8560000000      67.6830000000
C       52.0290000000     188.7680000000      66.9510000000
CL      52.4740000000     187.1290000000      67.1120000000
CL      50.4280000000     192.7930000000      66.8590000000
C       50.2180000000     190.1620000000      66.8270000000
H       48.0540533879     178.6930829074      61.8563266950
H       48.6315149509     179.8314391041      62.9424305542
H       48.7428236119     177.8228967247      64.1060025568
H       46.2257476233     179.4542495707      64.7019238806
H       47.6129182045     177.3553188798      66.4619400090
H       45.9333747894     177.3123519976      65.9440104313
H       46.4873912317     178.5477141094      67.0875961044
H       48.1279088531     175.7396963912      64.5272571323
H       45.4387382282     175.0115118895      63.6576970889
H       47.8197189039     173.1830497127      63.0337507863
H       46.6096961990     175.2112066425      61.6495853599
H       44.8025010827     173.0660564435      62.3593310352
H       45.5806240150     172.0530118239      63.5741992677
H       45.9825666104     171.8671135390      61.8587365880
H       44.4205172287     174.3109936222      65.4750338737
H       46.0621255326     172.6725739007      67.3198039553
H       44.5237396708     173.4242647657      69.1828203600
H       43.4011006746     174.9623201331      67.0679988780
H       45.8954032849     175.6786000212      67.6416367402
H       46.6814926420     174.6570727060      68.8365407021
H       45.4078545470     175.7851878699      69.3260173667
H       52.3914551311     174.2274599964      64.1235499197
H       50.7739404639     173.5449809394      64.1320778840
H       49.4839848561     175.7329783021      70.6447307065
H       48.3038296914     177.0029089372      70.8163968648
H       50.1654042452     178.6788455373      70.4667178732
H       51.2365989168     177.3513699726      70.1289515855
H       49.7357801340     176.6421580132      68.2424591273
H       48.6845115457     177.9992692537      68.5766519986
H       50.5826314653     179.5882985749      68.1263710862
H       51.6684123327     178.2469284168      67.9115229819
H       49.4980189590     179.0314980504      66.0690012654
H       50.1930858313     177.5341191910      65.9927692632
H       44.9187682953     170.8842212774      68.2526079122
H       42.3238770369     170.2785205832      66.8640111633
H       42.6960838210     169.8229082327      68.5316981663
H       43.5146445553     169.0098008256      67.1803987793
H       50.2995784890     186.9660828385      65.1440187599
H       54.0507044793     189.5340778591      67.0004853652
H       53.1792652715     191.8673267853      66.8283267719
H       47.4429781646     183.7953565961      66.6024792346
H       49.7684033739     181.9765083876      66.3096784299
H       48.4974058224     180.6867495223      68.0841093703
H       47.2076830245     181.8498730595      68.0332281781
H       48.5520553927     183.5571872697      69.0357736371
H       50.8691077164     181.5788467312      68.7958252663
H       50.9475020206     183.0871635169      69.6964539050
H       50.7048414162     183.1139011475      67.9555757031
H       49.0871952603     180.9210753148      70.4989580389
H       47.6551214765     181.9238327929      70.6845789962
H       49.2249668122     182.5198182503      71.2222734334
H       48.2095813592     185.9093500884      64.6436612546
H       47.7966498131     186.0141361958      66.3434481957
H       49.1686841388     190.4076642372      66.8070747686
H       46.9864799890     179.7023492977      62.6516073283
H       47.6040546334     182.3419506239      63.7483740702
H       45.7857908446     181.4103827878      64.7575429367
H       51.5891664274     173.8625287841      65.6879236802
H       49.6173590748     176.8664041973      72.0082728953
