114
6V8_MS_C_ASP17 minimal catalytic core | Y1-3 + Asp17 sidechain + Lys33 sidechain + 6V8 | 2 link H
N       47.8600000000     179.1660000000      62.7530000000
C       47.7410000000     178.1840000000      63.8280000000
C       46.8980000000     177.0130000000      63.4580000000
O       45.9240000000     177.1660000000      62.7420000000
C       47.1150000000     178.9020000000      65.0300000000
O       48.0580000000     179.8330000000      65.5470000000
C       46.7580000000     177.9770000000      66.2020000000
N       47.2970000000     175.8220000000      63.9260000000
C       46.4540000000     174.6520000000      63.8740000000
C       46.4660000000     174.0090000000      65.2650000000
O       47.5120000000     173.7410000000      65.8250000000
C       46.8570000000     173.6460000000      62.7720000000
O       47.0330000000     174.3280000000      61.5220000000
C       45.7400000000     172.5880000000      62.6380000000
N       45.2710000000     173.8860000000      65.8630000000
C       45.1050000000     173.1610000000      67.0970000000
C       44.0570000000     172.1060000000      66.8600000000
O       43.1440000000     172.3300000000      66.0340000000
C       44.6860000000     174.0470000000      68.2880000000
O       43.4590000000     174.6870000000      68.0190000000
C       45.7260000000     175.0940000000      68.5440000000
C       51.4450000000     174.2190000000      64.6680000000
C       50.8510000000     175.6710000000      64.6200000000
O       49.8990000000     175.9010000000      65.3370000000
O       51.3680000000     176.5380000000      63.9280000000
C       49.3710000000     176.7800000000      70.9500000000
C       50.1810000000     177.6530000000      70.0750000000
C       49.7260000000     177.6630000000      68.6460000000
C       50.6220000000     178.5480000000      67.7920000000
N       50.3060000000     178.4840000000      66.3380000000
N       44.1800000000     170.9930000000      67.5510000000
C       43.1190000000     169.9600000000      67.5370000000
N       49.5430000000     186.9550000000      65.8390000000
C       53.0010000000     189.7690000000      66.9380000000
C       50.6170000000     188.9090000000      66.8780000000
C       51.1740000000     191.1720000000      66.7890000000
C       52.5280000000     191.0080000000      66.8490000000
O       50.3990000000     184.2480000000      65.6020000000
C       49.2110000000     184.4870000000      65.8830000000
N       48.4000000000     183.5550000000      66.3290000000
C       48.7110000000     182.1580000000      66.5180000000
B       47.8620000000     181.2670000000      65.3820000000
O       48.0930000000     181.5040000000      63.8590000000
O       46.3620000000     181.6000000000      65.5190000000
C       48.2960000000     181.7550000000      67.9550000000
C       48.9490000000     182.5260000000      69.0720000000
C       50.4460000000     182.5790000000      68.8710000000
C       48.7190000000     181.9460000000      70.4440000000
C       48.6320000000     185.8590000000      65.6520000000
C       49.5760000000     187.7960000000      66.8570000000
O       48.7280000000     187.8560000000      67.6830000000
C       52.0290000000     188.7680000000      66.9510000000
CL      52.4740000000     187.1290000000      67.1120000000
CL      50.4280000000     192.7930000000      66.8590000000
C       50.2180000000     190.1620000000      66.8270000000
H       48.2224666822     178.7285360340      61.9131844267
H       48.5019877214     179.9012474466      63.0261630708
H       48.7378558350     177.8245095439      64.1148004119
H       46.2320642066     179.4560848265      64.6881463361
H       47.6108519008     177.3517853159      66.4599948404
H       45.9301197900     177.3160502867      65.9450535644
H       46.4908566466     178.5482082968      67.0883554212
H       48.1254277891     175.7384764740      64.5303606480
H       45.4386335313     175.0117280473      63.6591015747
H       47.8195001106     173.1827715779      63.0333367822
H       46.6027410294     175.2082821520      61.6393665868
H       44.8029497067     173.0659175015      62.3578139890
H       45.5798148866     172.0537738533      63.5743957103
H       45.9833221103     171.8666004439      61.8595544562
H       44.4205959906     174.3113904106      65.4750054116
H       46.0621885745     172.6726933181      67.3192123109
H       44.5233368499     173.4245909745      69.1827588418
H       43.3999230285     174.9615706146      67.0679177812
H       45.8987444585     175.6752032160      67.6401175003
H       46.6800058248     174.6571769003      68.8412205452
H       45.4054982958     175.7879413432      69.3225088915
H       52.3914125685     174.2266796935      64.1232625872
H       50.7729999259     173.5450352664      64.1330365980
H       49.4845316360     175.7331804548      70.6446921572
H       48.3040978918     177.0034670805      70.8165759622
H       50.1653273820     178.6787004424      70.4666502364
H       51.2362115898     177.3504301962      70.1285036233
H       49.7366156411     176.6417106994      68.2437913809
H       48.6845951172     177.9990671476      68.5768775313
H       50.5842694308     179.5881311322      68.1271346491
H       51.6680506842     178.2450933055      67.9107125257
H       49.4971218970     179.0378811508      66.0868691971
H       50.1352643100     177.5226431814      66.0559539730
H       44.9179557685     170.8849069059      68.2535403111
H       42.3332441087     170.2695259867      66.8490891642
H       42.6828488867     169.8373786573      68.5277312469
H       43.5188104499     169.0047994142      67.1991953865
H       50.2995042620     186.9666100809      65.1436184158
H       54.0506874440     189.5338451093      66.9997198891
H       53.1791942483     191.8673235734      66.8276139434
H       47.4420551433     183.7953250393      66.5998869030
H       49.7684098796     181.9774056193      66.3091170940
H       48.4981869288     180.6870802782      68.0842115059
H       47.2079477121     181.8510210288      68.0332696481
H       48.5522778704     183.5570467369      69.0354771822
H       50.8695303408     181.5787421783      68.8004721680
H       50.9466829116     183.0912014677      69.6943311243
H       50.7046555228     183.1098667714      67.9532349329
H       49.0864646107     180.9208730258      70.4984390034
H       47.6551899164     181.9247803572      70.6846183619
H       49.2256424077     182.5195523940      71.2218887977
H       48.2105916073     185.9092085985      64.6433814621
H       47.7971160994     186.0141843826      66.3437954857
H       49.1686488890     190.4076403888      66.8070081324
H       50.8904615659     177.3835154825      64.0850143967
H       47.4562930188     182.2208782610      63.6726295089
H       45.7762841866     181.3981710670      64.7677592641
H       51.5891664274     173.8625287841      65.6879236802
H       49.6173590748     176.8664041973      72.0082728953
