114
6V8_MS_B_LYS33 minimal catalytic core | Y1-3 + Asp17 sidechain + Lys33 sidechain + 6V8 | 2 link H
N       47.8600000000     179.1660000000      62.7530000000
C       47.7410000000     178.1840000000      63.8280000000
C       46.8980000000     177.0130000000      63.4580000000
O       45.9240000000     177.1660000000      62.7420000000
C       47.1150000000     178.9020000000      65.0300000000
O       48.0580000000     179.8330000000      65.5470000000
C       46.7580000000     177.9770000000      66.2020000000
N       47.2970000000     175.8220000000      63.9260000000
C       46.4540000000     174.6520000000      63.8740000000
C       46.4660000000     174.0090000000      65.2650000000
O       47.5120000000     173.7410000000      65.8250000000
C       46.8570000000     173.6460000000      62.7720000000
O       47.0330000000     174.3280000000      61.5220000000
C       45.7400000000     172.5880000000      62.6380000000
N       45.2710000000     173.8860000000      65.8630000000
C       45.1050000000     173.1610000000      67.0970000000
C       44.0570000000     172.1060000000      66.8600000000
O       43.1440000000     172.3300000000      66.0340000000
C       44.6860000000     174.0470000000      68.2880000000
O       43.4590000000     174.6870000000      68.0190000000
C       45.7260000000     175.0940000000      68.5440000000
C       51.4450000000     174.2190000000      64.6680000000
C       50.8510000000     175.6710000000      64.6200000000
O       49.8990000000     175.9010000000      65.3370000000
O       51.3680000000     176.5380000000      63.9280000000
C       49.3710000000     176.7800000000      70.9500000000
C       50.1810000000     177.6530000000      70.0750000000
C       49.7260000000     177.6630000000      68.6460000000
C       50.6220000000     178.5480000000      67.7920000000
N       50.3060000000     178.4840000000      66.3380000000
N       44.1800000000     170.9930000000      67.5510000000
C       43.1190000000     169.9600000000      67.5370000000
N       49.5430000000     186.9550000000      65.8390000000
C       53.0010000000     189.7690000000      66.9380000000
C       50.6170000000     188.9090000000      66.8780000000
C       51.1740000000     191.1720000000      66.7890000000
C       52.5280000000     191.0080000000      66.8490000000
O       50.3990000000     184.2480000000      65.6020000000
C       49.2110000000     184.4870000000      65.8830000000
N       48.4000000000     183.5550000000      66.3290000000
C       48.7110000000     182.1580000000      66.5180000000
B       47.8620000000     181.2670000000      65.3820000000
O       48.0930000000     181.5040000000      63.8590000000
O       46.3620000000     181.6000000000      65.5190000000
C       48.2960000000     181.7550000000      67.9550000000
C       48.9490000000     182.5260000000      69.0720000000
C       50.4460000000     182.5790000000      68.8710000000
C       48.7190000000     181.9460000000      70.4440000000
C       48.6320000000     185.8590000000      65.6520000000
C       49.5760000000     187.7960000000      66.8570000000
O       48.7280000000     187.8560000000      67.6830000000
C       52.0290000000     188.7680000000      66.9510000000
CL      52.4740000000     187.1290000000      67.1120000000
CL      50.4280000000     192.7930000000      66.8590000000
C       50.2180000000     190.1620000000      66.8270000000
H       48.2733434727     178.7430104103      61.9273747112
H       48.4728777381     179.9152674589      63.0492289343
H       48.7428401998     177.8266920950      64.1105370494
H       46.2316604436     179.4556804425      64.6881283540
H       47.6104225751     177.3510982828      66.4595739128
H       45.9300698840     177.3164071741      65.9450020493
H       46.4912301723     178.5479164853      67.0884553962
H       48.1275908831     175.7398907976      64.5276256379
H       45.4386426059     175.0115459575      63.6581635758
H       47.8195311372     173.1830696064      63.0341875624
H       46.6120903058     175.2126939812      61.6443529192
H       44.8029298158     173.0659692771      62.3578401165
H       45.5797232840     172.0538425522      63.5744580224
H       45.9832149789     171.8665655808      61.8595119409
H       44.4206176795     174.3113883155      65.4749958332
H       46.0620333176     172.6726257177      67.3198998822
H       44.5234193575     173.4245740361      69.1829401774
H       43.3996825542     174.9618699975      67.0680107484
H       45.8979128674     175.6761371488      67.6405769621
H       46.6804330359     174.6573711279      68.8401265102
H       45.4061740832     175.7873594974      69.3233749351
H       52.3913736041     174.2273748245      64.1235126897
H       50.7735074070     173.5451370067      64.1324911055
H       49.4840498451     175.7330372420      70.6448224700
H       48.3040340408     177.0033569098      70.8165181869
H       50.1652214332     178.6787539043      70.4668701536
H       51.2364435696     177.3512035286      70.1293048500
H       49.7353467198     176.6423083902      68.2421053928
H       48.6842116335     177.9986349665      68.5771711446
H       50.5734775733     179.5843296620      68.1406327997
H       51.6661176561     178.2458808132      67.9364010682
H       49.4154758432     178.9490913999      66.1291030552
H       50.2501491211     177.5195841062      65.9795163230
H       44.9170253097     170.8854920204      68.2546288045
H       42.3325413806     170.2703288896      66.8501765983
H       42.6838211621     169.8363805653      68.5280904039
H       43.5185221630     169.0051267605      67.1977675073
H       50.2999467115     186.9665595788      65.1444122298
H       54.0506999781     189.5340996554      67.0006852684
H       53.1792503345     191.8673244037      66.8282813864
H       47.4421314770     183.7955241856      66.6000496779
H       49.7685492174     181.9778354621      66.3104124986
H       48.4976168808     180.6868952078      68.0842023498
H       47.2078093949     181.8507431331      68.0331543407
H       48.5519242184     183.5570872560      69.0355818581
H       50.8696676031     181.5787290253      68.8019615293
H       50.9463986470     183.0921050798      69.6938965226
H       50.7048223756     183.1090401722      67.9529044236
H       49.0875861190     180.9213226341      70.4988218324
H       47.6550777984     181.9234213167      70.6840242399
H       49.2244232655     182.5201206286      71.2222658260
H       48.2094627031     185.9093101604      64.6437925750
H       47.7972313021     186.0140740336      66.3441598478
H       49.1686419021     190.4076622437      66.8078312831
H       51.0191932560     179.0055976787      65.8161271669
H       47.4476903377     182.2090708022      63.6623328455
H       45.7757663328     181.3981692175      64.7680499912
H       51.5891664274     173.8625287841      65.6879236802
H       49.6173590748     176.8664041973      72.0082728953
