125
BO2_MS_C_ASP17 minimal catalytic core | Y1-3 + Asp17 sidechain + Lys33 sidechain + BO2 | 2 link H
N       47.8600000000     179.1660000000      62.7530000000
C       47.7410000000     178.1840000000      63.8280000000
C       46.8980000000     177.0130000000      63.4580000000
O       45.9240000000     177.1660000000      62.7420000000
C       47.1150000000     178.9020000000      65.0300000000
O       48.0580000000     179.8330000000      65.5470000000
C       46.7580000000     177.9770000000      66.2020000000
N       47.2970000000     175.8220000000      63.9260000000
C       46.4540000000     174.6520000000      63.8740000000
C       46.4660000000     174.0090000000      65.2650000000
O       47.5120000000     173.7410000000      65.8250000000
C       46.8570000000     173.6460000000      62.7720000000
O       47.0330000000     174.3280000000      61.5220000000
C       45.7400000000     172.5880000000      62.6380000000
N       45.2710000000     173.8860000000      65.8630000000
C       45.1050000000     173.1610000000      67.0970000000
C       44.0570000000     172.1060000000      66.8600000000
O       43.1440000000     172.3300000000      66.0340000000
C       44.6860000000     174.0470000000      68.2880000000
O       43.4590000000     174.6870000000      68.0190000000
C       45.7260000000     175.0940000000      68.5440000000
C       51.4450000000     174.2190000000      64.6680000000
C       50.8510000000     175.6710000000      64.6200000000
O       49.8990000000     175.9010000000      65.3370000000
O       51.3680000000     176.5380000000      63.9280000000
C       49.3710000000     176.7800000000      70.9500000000
C       50.1810000000     177.6530000000      70.0750000000
C       49.7260000000     177.6630000000      68.6460000000
C       50.6220000000     178.5480000000      67.7920000000
N       50.3060000000     178.4840000000      66.3380000000
N       44.1800000000     170.9930000000      67.5510000000
C       43.1190000000     169.9600000000      67.5370000000
N       51.8750000000     188.4900000000      66.2910000000
C       51.2430000000     187.8010000000      67.2540000000
C       51.8790000000     187.5720000000      68.4910000000
N       53.0850000000     188.1320000000      68.7340000000
C       53.6920000000     188.8390000000      67.7940000000
C       53.0730000000     189.0300000000      66.5680000000
C       49.9770000000     187.0890000000      66.9530000000
O       49.2200000000     186.7530000000      67.8520000000
N       49.8090000000     186.6650000000      65.6870000000
C       48.7040000000     185.8480000000      65.2600000000
C       48.4070000000     186.1740000000      63.8110000000
C       47.3620000000     185.2840000000      63.1830000000
C       46.0490000000     185.2710000000      63.6290000000
C       45.0990000000     184.4620000000      62.9800000000
C       45.4150000000     183.6560000000      61.9130000000
C       46.7170000000     183.6700000000      61.4270000000
C       47.6830000000     184.4960000000      62.0630000000
C       49.1020000000     184.3870000000      65.3900000000
O       50.1100000000     183.9990000000      64.8320000000
N       48.3580000000     183.5400000000      66.0800000000
C       48.6080000000     182.1210000000      66.2220000000
C       48.2630000000     181.7030000000      67.6650000000
C       49.0050000000     182.5040000000      68.7210000000
C       50.5000000000     182.6460000000      68.4510000000
C       48.7880000000     181.8670000000      70.0840000000
B       47.7230000000     181.2360000000      65.1690000000
O       48.0920000000     181.5100000000      63.7010000000
O       46.2460000000     181.6250000000      65.2440000000
H       48.1362364103     178.7122981238      61.8894473554
H       48.5418112674     179.8805251491      62.9823592608
H       48.7379481801     177.8224287130      64.1114518221
H       46.2366210942     179.4566178119      64.6924919148
H       47.6135560789     177.3593684001      66.4669990236
H       45.9379311392     177.3088425730      65.9406808095
H       46.4798488811     178.5471355128      67.0849761196
H       48.1229918466     175.7392502183      64.5332217250
H       45.4380860094     175.0103870093      63.6587722771
H       47.8189711488     173.1820722375      63.0341171686
H       46.5743869094     175.1943375594      61.6207210982
H       44.8029490776     173.0656855514      62.3572901536
H       45.5785397572     172.0538229390      63.5742623111
H       45.9825953878     171.8659448115      61.8598765570
H       44.4204714297     174.3114267993      65.4755223671
H       46.0612040244     172.6723946398      67.3210086933
H       44.5252742153     173.4235459161      69.1825550143
H       43.4007684618     174.9641924448      67.0685950395
H       45.8858886884     175.6866995728      67.6453195341
H       46.6849719393     174.6561455076      68.8233972544
H       45.4138391443     175.7776444944      69.3347780987
H       52.3911231674     174.2261890626      64.1226395698
H       50.7722652274     173.5454440924      64.1331514643
H       49.4838568647     175.7330321591      70.6447857631
H       48.3038727782     177.0032084019      70.8165372058
H       50.1659246037     178.6782263268      70.4677052945
H       51.2363334486     177.3506126898      70.1289716406
H       49.7354366961     176.6415867140      68.2439892694
H       48.6845758714     177.9994840141      68.5767655829
H       50.5842068316     179.5875865634      68.1296174308
H       51.6679907648     178.2452813321      67.9119462116
H       49.4913205041     179.0313845395      66.0914724102
H       50.1354379555     177.5222755009      66.0581951057
H       44.9034176721     170.8958869348      68.2701755625
H       42.4625325317     170.1386874132      66.6864319537
H       42.5238237616     170.0106124077      68.4479338219
H       43.5474495595     168.9628047371      67.4421585959
H       51.4620051412     186.9170247766      69.2239747466
H       54.6482223569     189.2821218816      68.0127796160
H       53.5164197698     189.6872786072      65.8464585526
H       50.5458162724     186.8025450650      65.0105034112
H       47.8415727687     186.0540361965      65.9095027467
H       48.1028436482     187.2217621001      63.7212247999
H       49.3385519866     186.0870589693      63.2430606651
H       45.7702574667     185.8654526779      64.4811372762
H       44.0913494078     184.4452876292      63.3626349848
H       44.6738407068     183.0073422587      61.4779577909
H       46.9990045611     183.0414652063      60.6005381099
H       48.6997851777     184.4847289714      61.7133600588
H       47.4734600273     183.8478543938      66.4999419074
H       49.6508686628     181.9074985411      65.9733097932
H       48.4768754098     180.6369829728      67.7860468039
H       47.1827535939     181.8038266388      67.8095192835
H       48.5693646700     183.5205347787      68.7258463998
H       50.9743279132     181.6721814215      68.3450818423
H       51.0057005127     183.1722484519      69.2615763171
H       50.6818271268     183.2035012705      67.5314760696
H       49.1857791116     180.8526206918      70.1057977765
H       47.7263936891     181.8072794407      70.3283282972
H       49.2826583764     182.4299828058      70.8767496105
H       50.8848240552     177.3806049601      64.0832995052
H       48.7676722782     182.2193810843      63.7360660880
H       46.1487258814     182.3051517200      64.5455993033
H       51.5891664274     173.8625287841      65.6879236802
H       49.6173590748     176.8664041973      72.0082728953
