125
BO2_MS_A_THRN minimal catalytic core | Y1-3 + Asp17 sidechain + Lys33 sidechain + BO2 | 2 link H
N       47.8600000000     179.1660000000      62.7530000000
C       47.7410000000     178.1840000000      63.8280000000
C       46.8980000000     177.0130000000      63.4580000000
O       45.9240000000     177.1660000000      62.7420000000
C       47.1150000000     178.9020000000      65.0300000000
O       48.0580000000     179.8330000000      65.5470000000
C       46.7580000000     177.9770000000      66.2020000000
N       47.2970000000     175.8220000000      63.9260000000
C       46.4540000000     174.6520000000      63.8740000000
C       46.4660000000     174.0090000000      65.2650000000
O       47.5120000000     173.7410000000      65.8250000000
C       46.8570000000     173.6460000000      62.7720000000
O       47.0330000000     174.3280000000      61.5220000000
C       45.7400000000     172.5880000000      62.6380000000
N       45.2710000000     173.8860000000      65.8630000000
C       45.1050000000     173.1610000000      67.0970000000
C       44.0570000000     172.1060000000      66.8600000000
O       43.1440000000     172.3300000000      66.0340000000
C       44.6860000000     174.0470000000      68.2880000000
O       43.4590000000     174.6870000000      68.0190000000
C       45.7260000000     175.0940000000      68.5440000000
C       51.4450000000     174.2190000000      64.6680000000
C       50.8510000000     175.6710000000      64.6200000000
O       49.8990000000     175.9010000000      65.3370000000
O       51.3680000000     176.5380000000      63.9280000000
C       49.3710000000     176.7800000000      70.9500000000
C       50.1810000000     177.6530000000      70.0750000000
C       49.7260000000     177.6630000000      68.6460000000
C       50.6220000000     178.5480000000      67.7920000000
N       50.3060000000     178.4840000000      66.3380000000
N       44.1800000000     170.9930000000      67.5510000000
C       43.1190000000     169.9600000000      67.5370000000
N       51.8750000000     188.4900000000      66.2910000000
C       51.2430000000     187.8010000000      67.2540000000
C       51.8790000000     187.5720000000      68.4910000000
N       53.0850000000     188.1320000000      68.7340000000
C       53.6920000000     188.8390000000      67.7940000000
C       53.0730000000     189.0300000000      66.5680000000
C       49.9770000000     187.0890000000      66.9530000000
O       49.2200000000     186.7530000000      67.8520000000
N       49.8090000000     186.6650000000      65.6870000000
C       48.7040000000     185.8480000000      65.2600000000
C       48.4070000000     186.1740000000      63.8110000000
C       47.3620000000     185.2840000000      63.1830000000
C       46.0490000000     185.2710000000      63.6290000000
C       45.0990000000     184.4620000000      62.9800000000
C       45.4150000000     183.6560000000      61.9130000000
C       46.7170000000     183.6700000000      61.4270000000
C       47.6830000000     184.4960000000      62.0630000000
C       49.1020000000     184.3870000000      65.3900000000
O       50.1100000000     183.9990000000      64.8320000000
N       48.3580000000     183.5400000000      66.0800000000
C       48.6080000000     182.1210000000      66.2220000000
C       48.2630000000     181.7030000000      67.6650000000
C       49.0050000000     182.5040000000      68.7210000000
C       50.5000000000     182.6460000000      68.4510000000
C       48.7880000000     181.8670000000      70.0840000000
B       47.7230000000     181.2360000000      65.1690000000
O       48.0920000000     181.5100000000      63.7010000000
O       46.2460000000     181.6250000000      65.2440000000
H       48.0512915133     178.6994777338      61.8524915133
H       48.6307079557     179.8292887286      62.9455582121
H       48.7417167456     177.8214638087      64.1069298208
H       46.2328923451     179.4626781579      64.7047742635
H       47.6200064992     177.3723245541      66.4770745696
H       45.9500911820     177.2960511071      65.9343480227
H       46.4632260804     178.5458450733      67.0807034362
H       48.1253526437     175.7408765817      64.5304561944
H       45.4378843330     175.0113097680      63.6615428959
H       47.8191587101     173.1817955779      63.0330425701
H       46.5830188396     175.1985850491      61.6331255830
H       44.8026675085     173.0659028867      62.3584772203
H       45.5800621167     172.0538734681      63.5746186070
H       45.9827995395     171.8662077497      61.8596151698
H       44.4205221462     174.3107594339      65.4749559060
H       46.0604794958     172.6705484888      67.3202854382
H       44.5240616094     173.4239069788      69.1826012496
H       43.4007374360     174.9624779836      67.0680305022
H       45.8810445587     175.6906973259      67.6470479942
H       46.6865819859     174.6556493806      68.8174189996
H       45.4164017692     175.7738991608      69.3391096418
H       52.3911838495     174.2267523940      64.1230823127
H       50.7726961326     173.5452284576      64.1331188863
H       49.4836580324     175.7329978818      70.6446423606
H       48.3038118334     177.0032211638      70.8164725083
H       50.1659456592     178.6783981064      70.4674909220
H       51.2364929381     177.3510365137      70.1287419587
H       49.7346430452     176.6422509510      68.2423394107
H       48.6846239519     178.0000040283      68.5771284820
H       50.5811196978     179.5878258081      68.1283694072
H       51.6685397045     178.2477502936      67.9120314112
H       49.4876458420     179.0207941281      66.0791837662
H       50.1931710014     177.5330803695      65.9966178688
H       44.9054465417     170.8942583724      68.2679666763
H       42.4287459766     170.1727733667      66.7216851151
H       42.5609077477     169.9699081983      68.4725775630
H       43.5443886251     168.9689634941      67.3823652026
H       51.4632165418     186.9160671648      69.2238301317
H       54.6490899995     189.2806130521      68.0121998140
H       53.5184632751     189.6850034137      65.8455796509
H       50.5468388490     186.7995978618      65.0113745594
H       47.8416063609     186.0542306953      65.9094515190
H       48.1041601071     187.2220979200      63.7198827537
H       49.3388053312     186.0845144352      63.2436412070
H       45.7702237205     185.8660349607      64.4807320127
H       44.0888197860     184.4534264277      63.3563377626
H       44.6658256863     183.0290556641      61.4602155423
H       46.9960954382     183.0506663098      60.5923921839
H       48.6996660920     184.4855341315      61.7129808837
H       47.4728768801     183.8473846422      66.4988419961
H       49.6502986616     181.9064094920      65.9719737008
H       48.4770654400     180.6369153445      67.7858774247
H       47.1826731981     181.8037517024      67.8093430928
H       48.5691145088     183.5204151818      68.7262664038
H       50.9763625674     181.6718531629      68.3559961565
H       51.0036889488     183.1814828044      69.2570375728
H       50.6819138464     183.1948240033      67.5261898506
H       49.1874077890     180.8531787885      70.1062668296
H       47.7262272579     181.8057320663      70.3275337411
H       49.2814329113     182.4310221128      70.8768987312
H       46.9971280375     179.7201529857      62.6570343257
H       48.7732821336     182.2124861433      63.7433531148
H       46.1484686306     182.2848602068      64.5265939389
H       51.5891664274     173.8625287841      65.6879236802
H       49.6173590748     176.8664041973      72.0082728953
