125
BO2_MS_B_LYS33 minimal catalytic core | Y1-3 + Asp17 sidechain + Lys33 sidechain + BO2 | 2 link H
N       47.8600000000     179.1660000000      62.7530000000
C       47.7410000000     178.1840000000      63.8280000000
C       46.8980000000     177.0130000000      63.4580000000
O       45.9240000000     177.1660000000      62.7420000000
C       47.1150000000     178.9020000000      65.0300000000
O       48.0580000000     179.8330000000      65.5470000000
C       46.7580000000     177.9770000000      66.2020000000
N       47.2970000000     175.8220000000      63.9260000000
C       46.4540000000     174.6520000000      63.8740000000
C       46.4660000000     174.0090000000      65.2650000000
O       47.5120000000     173.7410000000      65.8250000000
C       46.8570000000     173.6460000000      62.7720000000
O       47.0330000000     174.3280000000      61.5220000000
C       45.7400000000     172.5880000000      62.6380000000
N       45.2710000000     173.8860000000      65.8630000000
C       45.1050000000     173.1610000000      67.0970000000
C       44.0570000000     172.1060000000      66.8600000000
O       43.1440000000     172.3300000000      66.0340000000
C       44.6860000000     174.0470000000      68.2880000000
O       43.4590000000     174.6870000000      68.0190000000
C       45.7260000000     175.0940000000      68.5440000000
C       51.4450000000     174.2190000000      64.6680000000
C       50.8510000000     175.6710000000      64.6200000000
O       49.8990000000     175.9010000000      65.3370000000
O       51.3680000000     176.5380000000      63.9280000000
C       49.3710000000     176.7800000000      70.9500000000
C       50.1810000000     177.6530000000      70.0750000000
C       49.7260000000     177.6630000000      68.6460000000
C       50.6220000000     178.5480000000      67.7920000000
N       50.3060000000     178.4840000000      66.3380000000
N       44.1800000000     170.9930000000      67.5510000000
C       43.1190000000     169.9600000000      67.5370000000
N       51.8750000000     188.4900000000      66.2910000000
C       51.2430000000     187.8010000000      67.2540000000
C       51.8790000000     187.5720000000      68.4910000000
N       53.0850000000     188.1320000000      68.7340000000
C       53.6920000000     188.8390000000      67.7940000000
C       53.0730000000     189.0300000000      66.5680000000
C       49.9770000000     187.0890000000      66.9530000000
O       49.2200000000     186.7530000000      67.8520000000
N       49.8090000000     186.6650000000      65.6870000000
C       48.7040000000     185.8480000000      65.2600000000
C       48.4070000000     186.1740000000      63.8110000000
C       47.3620000000     185.2840000000      63.1830000000
C       46.0490000000     185.2710000000      63.6290000000
C       45.0990000000     184.4620000000      62.9800000000
C       45.4150000000     183.6560000000      61.9130000000
C       46.7170000000     183.6700000000      61.4270000000
C       47.6830000000     184.4960000000      62.0630000000
C       49.1020000000     184.3870000000      65.3900000000
O       50.1100000000     183.9990000000      64.8320000000
N       48.3580000000     183.5400000000      66.0800000000
C       48.6080000000     182.1210000000      66.2220000000
C       48.2630000000     181.7030000000      67.6650000000
C       49.0050000000     182.5040000000      68.7210000000
C       50.5000000000     182.6460000000      68.4510000000
C       48.7880000000     181.8670000000      70.0840000000
B       47.7230000000     181.2360000000      65.1690000000
O       48.0920000000     181.5100000000      63.7010000000
O       46.2460000000     181.6250000000      65.2440000000
H       48.3030713658     178.7507962581      61.9371493832
H       48.4448854561     179.9310942592      63.0535305972
H       48.7423116191     177.8256629715      64.1101700264
H       46.2386040746     179.4768298348      64.6927628089
H       47.5982927786     177.3261254233      66.4378272417
H       45.9071564320     177.3410185909      65.9570450024
H       46.5238647991     178.5483858839      67.0976755967
H       48.1262711841     175.7407687738      64.5290640032
H       45.4384788301     175.0101685097      63.6569144681
H       47.8188780097     173.1820761401      63.0348378185
H       46.6028699643     175.2081632927      61.6473269216
H       44.8034925646     173.0658049956      62.3555228582
H       45.5783326784     172.0564017839      63.5757654933
H       45.9846321908     171.8644973006      61.8617780824
H       44.4206395409     174.3107321247      65.4747226087
H       46.0619462241     172.6732908392      67.3215543051
H       44.5246020294     173.4242175919      69.1829527407
H       43.4017191580     174.9621378312      67.0678526772
H       45.9076393256     175.6677078699      67.6368894103
H       46.6766450294     174.6577154657      68.8531674405
H       45.4002327167     175.7945691773      69.3144464924
H       52.3913655168     174.2267702285      64.1233208833
H       50.7728152631     173.5453257550      64.1327622416
H       49.4836442284     175.7329012589      70.6448864750
H       48.3038686691     177.0032447597      70.8164598715
H       50.1658301234     178.6783705454      70.4677286214
H       51.2365656338     177.3513148861      70.1291186991
H       49.7344602706     176.6422222417      68.2421696430
H       48.6840684099     177.9986303300      68.5768046365
H       50.5732704149     179.5838104747      68.1429148249
H       51.6661211749     178.2460399731      67.9371622637
H       49.4156055691     178.9484428864      66.1259813755
H       50.2469263141     177.5179654920      65.9846054471
H       44.9154164815     170.8869961833      68.2566436000
H       42.3311741774     170.2709358316      66.8519816171
H       42.6854421145     169.8345139408      68.5286965131
H       43.5181977322     169.0055953737      67.1957170142
H       51.4610041255     186.9183609390      69.2245729196
H       54.6522731862     189.2751051083      68.0091919545
H       53.5298832722     189.6624159291      65.8315321587
H       50.5455993649     186.8025318407      65.0106043093
H       47.8408429586     186.0536550609      65.9086789902
H       48.1033081435     187.2219292750      63.7207174374
H       49.3387059836     186.0856496285      63.2434131103
H       45.7695217175     185.8675030736      64.4793452442
H       44.0869272519     184.4619424268      63.3512364811
H       44.6658570161     183.0357802951      61.4506080501
H       46.9951027563     183.0541255271      60.5895974370
H       48.6988157362     184.4877786259      61.7105726775
H       47.4693296106     183.8449006644      66.4934430912
H       49.6503186032     181.9062868068      65.9726006811
H       48.4769013500     180.6369344261      67.7862401970
H       47.1826304390     181.8039980350      67.8092065782
H       48.5695833764     183.5206786106      68.7264100889
H       50.9700095180     181.6726463049      68.3213402210
H       51.0093400405     183.1514080813      69.2727891130
H       50.6817347828     183.2240162444      67.5438619132
H       49.1853522482     180.8523948320      70.1050210001
H       47.7262550396     181.8081067407      70.3282349501
H       49.2833977073     182.4297858806      70.8765067005
H       51.0221784384     179.0015130773      65.8166987569
H       48.7442417757     182.2396504835      63.7378830583
H       46.0610589827     182.0514413293      64.3848769090
H       51.5891664274     173.8625287841      65.6879236802
H       49.6173590748     176.8664041973      72.0082728953
